 &projwfc
    prefix='Bi'
    outdir='./'
    filpdos='./Bi'
 /
