 &control
    calculation = 'scf'
    restart_mode='from_scratch',
    prefix='Bi',
    pseudo_dir ='./' 
    outdir='./'
    verbosity = "high"
 /
 &system
    ibrav=  4, nat=  2, ntyp= 1,
    celldm(1) = 8.220311918318445 
    celldm(3) = 2.563534948845368,
    ecutwfc =50.0,
    ecutrho =500.0,
    occupations='smearing', smearing='gaussian', degauss=0.000735294117647
    lspinorb=.true.,
    noncolin=.true.,
    starting_magnetization=0.0,
 /
 &electrons
    mixing_mode = 'plain'
    mixing_beta = 0.7
    conv_thr =  1.0d-8
/
ATOMIC_SPECIES
Bi  208.98000  Bi.pbe-dn-kjpaw_psl.1.0.0.UPF 
ATOMIC_POSITIONS crystal
Bi       0.666666667   0.333333333   0.510315026
Bi       0.333333333   0.666666667   0.664927517
K_POINTS (automatic)
  9 9 1  0 0 0
