 &projwfc
    prefix='GaAs'
    outdir='./'
    filpdos='./'
    lwrite_overlaps = .false.
    lbinary_data  = .false.
 /
~  
