Cr2 I6 monolayer                        
    1.000000000000000     
     7.0079441071000002    0.0000000000000000    0.0000000000000000
    -3.5039720535000001    6.0690576250000001    0.0000000000000000
     0.0000000000000000    0.0000000000000000   15.0000000000000000
   Cr   I 
     2     6
Direct
  0.6666666870000029  0.3333333429999996  0.6021179037228745
  0.3333333429999996  0.6666666870000029  0.6021178282771262
  0.6444835075410495  0.9999979907631273  0.4956744325114339
  0.3555144832220781  0.3555164924589503  0.4956744325114339
  0.0000020142368693  0.6444855167779224  0.4956744325114339
  0.3555144364589507  0.9999978972368735  0.7085613594885645
  0.6444834307779275  0.6444855335410538  0.7085613594885645
  0.0000021117631310  0.3555165692220731  0.7085613594885645
 
  0.00000000E+00  0.00000000E+00  0.00000000E+00
  0.00000000E+00  0.00000000E+00  0.00000000E+00
  0.00000000E+00  0.00000000E+00  0.00000000E+00
  0.00000000E+00  0.00000000E+00  0.00000000E+00
  0.00000000E+00  0.00000000E+00  0.00000000E+00
  0.00000000E+00  0.00000000E+00  0.00000000E+00
  0.00000000E+00  0.00000000E+00  0.00000000E+00
  0.00000000E+00  0.00000000E+00  0.00000000E+00
