&control
   calculation = 'scf'
   prefix = 'Bi',
   pseudo_dir = './'
   outdir = './'
   verbosity = "high"
   wf_collect=.true.
/
&system
   ibrav=  0,
   nat=  24, 
   ntyp= 1,
   celldm(1) = 1.8897261249935, 
   ecutwfc =45.0,
   ecutrho =300.0,
   occupations='smearing', 
   smearing = 'gaussian',
   degauss=0.001
   lspinorb=  .false.
   noncolin=  .false.
/
&electrons
   mixing_beta = 0.7
   conv_thr =  1.0d-8
/
ATOMIC_SPECIES
Bi 0.0  Bi.pbe-dn-kjpaw_psl.1.0.0.UPF 
ATOMIC_POSITIONS crystal 
Bi     0.000000000         0.152169824         0.462253392
Bi     0.500000000         0.175824434         0.571495950
Bi     0.500000000         0.217313558         0.447532356
Bi     0.000000000         0.239115998         0.562041819
Bi     0.000000000         0.282417417         0.447368920
Bi     0.500000000         0.303469867         0.564096808
Bi     0.500000000         0.346754491         0.449279726
Bi     0.000000000         0.368238986         0.564790964
Bi     0.000000000         0.411366373         0.449398637
Bi     0.500000000         0.432744443         0.565212250
Bi     0.500000000         0.475948364         0.449988455
Bi     0.000000000         0.497231036         0.565984905
Bi     0.000000000         0.540542424         0.451340199
Bi     0.500000000         0.561765015         0.567454994
Bi     0.500000000         0.604811370         0.451701373
Bi     0.000000000         0.626358509         0.567068756
Bi     0.000000000         0.669467390         0.451423645
Bi     0.500000000         0.690804422         0.567265093
Bi     0.500000000         0.733732402         0.450719148
Bi     0.000000000         0.755246878         0.566062510
Bi     0.000000000         0.798119783         0.449299932
Bi     0.500000000         0.820306778         0.562711954
Bi     0.500000000         0.861405194         0.436879754
Bi     0.000000000         0.885157406         0.545853972
CELL_PARAMETERS cubic
        4.3499999046         0.0000000000         0.0000000000
        0.0000000000        58.0000000000         0.0000000000
        0.0000000000         0.0000000000        15.0000000000
K_POINTS (automatic)
  7 1 1  0 0 0
