<UPF version="2.0.1">
  <PP_INFO>
    Generated using "atomic" code by A. Dal Corso  v.7.4.1
    Author: anonymous
    Generation date: 10Mar2026
    Pseudopotential type: NC
    Element: Si
    Functional: PBE
    Suggested minimum cutoff for wavefunctions:   0. Ry
    Suggested minimum cutoff for charge density:   0. Ry
    The Pseudo was generated with a Scalar-Relativistic Calculation
    L component and cutoff radius for Local Potential:  2   2.0000
    Pseudopotential contains additional information for GIPAW reconstruction.
    Valence configuration: 
    nl pn  l   occ       Rcut    Rcut US       E pseu
    3S  1  0  2.00      2.000      2.000    -1.136753
    3P  2  1  1.30      2.000      2.000    -0.611517
    4S  2  0  0.00      6.211      6.211    -0.196696
    4P  3  1  0.00      8.383      8.383    -0.118943
    3D  3  2  0.20      5.345      5.345    -0.104267
    Generation configuration:
    3S  1  0  2.00      2.000      2.000    -1.136749
    3P  2  1  1.30      2.000      2.000    -0.611516
    3D  3  2  0.20      2.000      2.000    -0.104260
    Pseudization used: troullier-martins
    <PP_INPUTFILE>
@input
title = 'Si'
	prefix = 'si'
zed = 14
dft = 'PBE'
	rel = 1
iswitch = 3
beta = 0.2
xmin = -8, dx = 0.01
/
8
1S  1  0  2.0  1
2S  2  0  2.0  1
2P  2  1  6.0  1
3S  3  0  2.0  1
3P  3  1  1.3  1
3D  3  2  0.2  1
4S  4  0 -1.0  1
4P  4  1 -1.0  1
@inputp
	pseudotype = 1
	lloc = 2
	tm = .true.
	file_pseudopw = 'Si.pbe-tm-new-gipaw.UPF'
lgipaw_reconstruction = .true.
!upf_v1_format = .true.
/
3
3S  1  0  2.0  0.00  2.00  2.00
3P  2  1  1.3  0.00  2.00  2.00
3D  3  2  0.2  0.00  2.00  2.00
@test
ecutmin = 10
ecutmax = 40
decut   = 5
/
5
3S  1  0  2.0  0.00  2.00  2.00
3P  2  1  1.3  0.00  2.00  2.00
4S  2  0  0.0  0.00  2.00  2.00
4P  3  1  0.0  0.00  2.00  2.00
3D  3  2  0.2  0.00  2.00  2.00
    </PP_INPUTFILE>
  </PP_INFO>
    <!-- END OF HUMAN READABLE SECTION -->
  <PP_HEADER generated="Generated using 'atomic' code by A. Dal Corso  v.7.4.1" author="anonymous" date="10Mar2026" comment="" element="Si" pseudo_type="NC" relativistic="scalar" is_ultrasoft="false" is_paw="false" is_coulomb="false" has_so="false" has_wfc="false" has_gipaw="true" paw_as_gipaw="false" core_correction="false" with_metagga_info="false" functional="PBE" z_valence="4.00000000000000" total_psenergy="-7.17146558456964" wfc_cutoff="0.000000000000000E+000" rho_cutoff="0.000000000000000E+000" l_max="2" l_max_rho="4" l_local="2" mesh_size="1525" number_of_wfc="3" number_of_proj="2"/>
  <PP_MESH mesh="1525" dx="1.000000000000000E-002" xmin="-8.00000000000000" rmax="100.000000000000" zmesh="14.0000000000000">
    <PP_R>
   2.396161627875085E-05   2.420243452595901E-05   2.444567303678853E-05
   2.469135613529321E-05   2.493950838998760E-05   2.519015461630398E-05
   2.544331987907386E-05   2.569902949503450E-05   2.595730903536056E-05
   2.621818432822131E-05   2.648168146136344E-05   2.674782678471988E-05
   2.701664691304470E-05   2.728816872857477E-05   2.756241938371790E-05
   2.783942630376820E-05   2.811921718964845E-05   2.840182002068042E-05
   2.868726305738272E-05   2.897557484429692E-05   2.926678421284192E-05
   2.956092028419726E-05   2.985801247221521E-05   3.015809048636217E-05
   3.046118433468956E-05   3.076732432683482E-05   3.107654107705230E-05
   3.138886550727467E-05   3.170432885020529E-05   3.202296265244125E-05
   3.234479877762835E-05   3.266986940964730E-05   3.299820705583224E-05
   3.332984455022131E-05   3.366481505684038E-05   3.400315207301924E-05
   3.434488943274148E-05   3.469006131002780E-05   3.503870222235361E-05
   3.539084703410067E-05   3.574653096004363E-05   3.610578956887145E-05
   3.646865878674441E-05   3.683517490088670E-05   3.720537456321519E-05
   3.757929479400456E-05   3.795697298558950E-05   3.833844690610392E-05
   3.872375470325779E-05   3.911293490815187E-05   3.950602643913097E-05
   3.990306860567579E-05   4.030410111233384E-05   4.070916406269003E-05
   4.111829796337687E-05   4.153154372812540E-05   4.194894268185652E-05
   4.237053656481336E-05   4.279636753673558E-05   4.322647818107523E-05
   4.366091150925517E-05   4.409971096497029E-05   4.454292042853175E-05
   4.499058422125528E-05   4.544274710989323E-05   4.589945431111128E-05
   4.636075149601008E-05   4.682668479469256E-05   4.729730080087689E-05
   4.777264657655588E-05   4.825276965670317E-05   4.873771805402690E-05
   4.922754026377094E-05   4.972228526856447E-05   5.022200254332020E-05
   5.072674206018208E-05   5.123655429352239E-05   5.175149022498933E-05
   5.227160134860520E-05   5.279693967591569E-05   5.332755774119137E-05
   5.386350860668100E-05   5.440484586791766E-05   5.495162365907863E-05
   5.550389665839868E-05   5.606172009363797E-05   5.662514974760494E-05
   5.719424196373438E-05   5.776905365172224E-05   5.834964229321631E-05
   5.893606594756462E-05   5.952838325762117E-05   6.012665345561065E-05
   6.073093636905139E-05   6.134129242673838E-05   6.195778266478589E-05
   6.258046873273154E-05   6.320941289970104E-05   6.384467806063525E-05
   6.448632774257954E-05   6.513442611103688E-05   6.578903797638418E-05
   6.645022880035350E-05   6.711806470257830E-05   6.779261246720520E-05
   6.847393954957285E-05   6.916211408295733E-05   6.985720488538533E-05
   7.055928146651639E-05   7.126841403459372E-05   7.198467350346503E-05
   7.270813149967420E-05   7.343886036962355E-05   7.417693318680916E-05
   7.492242375912780E-05   7.567540663625787E-05   7.643595711711460E-05
   7.720415125737989E-05   7.798006587710791E-05   7.876377856840727E-05
   7.955536770320024E-05   8.035491244105981E-05   8.116249273712613E-05
   8.197818935010189E-05   8.280208385032795E-05   8.363425862794104E-05
   8.447479690111234E-05   8.532378272436966E-05   8.618130099700288E-05
   8.704743747155373E-05   8.792227876239150E-05   8.880591235437440E-05
   8.969842661159782E-05   9.059991078623135E-05   9.151045502744366E-05
   9.243015039041771E-05   9.335908884545626E-05   9.429736328717876E-05
   9.524506754381138E-05   9.620229638656961E-05   9.716914553913527E-05
   9.814571168722942E-05   9.913209248828064E-05   1.001283865811910E-04
   1.011346935962002E-04   1.021511141648482E-04   1.031777499300388E-04
   1.042147035562042E-04   1.052620787395711E-04   1.063199802185307E-04
   1.073885137841123E-04   1.084677862905631E-04   1.095579056660331E-04
   1.106589809233683E-04   1.117711221710119E-04   1.128944406240155E-04
   1.140290486151606E-04   1.151750596061917E-04   1.163325881991629E-04
   1.175017501478982E-04   1.186826623695667E-04   1.198754429563748E-04
   1.210802111873750E-04   1.222970875403945E-04   1.235261937040827E-04
   1.247676525900800E-04   1.260215883453097E-04   1.272881263643923E-04
   1.285673933021851E-04   1.298595170864480E-04   1.311646269306362E-04
   1.324828533468217E-04   1.338143281587445E-04   1.351591845149957E-04
   1.365175569023313E-04   1.378895811591221E-04   1.392753944889372E-04
   1.406751354742644E-04   1.420889440903688E-04   1.435169617192900E-04
   1.449593311639810E-04   1.464161966625884E-04   1.478877039028758E-04
   1.493740000367936E-04   1.508752336951939E-04   1.523915550026934E-04
   1.539231155926868E-04   1.554700686225090E-04   1.570325687887522E-04
   1.586107723427354E-04   1.602048371061288E-04   1.618149224867373E-04
   1.634411894944407E-04   1.650838007572949E-04   1.667429205377952E-04
   1.684187147493023E-04   1.701113509726336E-04   1.718209984728221E-04
   1.735478282160427E-04   1.752920128867083E-04   1.770537269047399E-04
   1.788331464430071E-04   1.806304494449468E-04   1.824458156423570E-04
   1.842794265733700E-04   1.861314656006070E-04   1.880021179295143E-04
   1.898915706268834E-04   1.918000126395586E-04   1.937276348133317E-04
   1.956746299120263E-04   1.976411926367749E-04   1.996275196454888E-04
   2.016338095725240E-04   2.036602630485453E-04   2.057070827205888E-04
   2.077744732723274E-04   2.098626414445393E-04   2.119717960557817E-04
   2.141021480232735E-04   2.162539103839868E-04   2.184272983159505E-04
   2.206225291597694E-04   2.228398224403568E-04   2.250793998888887E-04
   2.273414854649762E-04   2.296263053790622E-04   2.319340881150419E-04
   2.342650644531124E-04   2.366194674928495E-04   2.389975326765196E-04
   2.413994978126225E-04   2.438256030996736E-04   2.462760911502233E-04
   2.487512070151188E-04   2.512511982080092E-04   2.537763147300970E-04
   2.563268090951391E-04   2.589029363546968E-04   2.615049541236435E-04
   2.641331226059237E-04   2.667877046205762E-04   2.694689656280146E-04
   2.721771737565741E-04   2.749125998293243E-04   2.776755173911522E-04
   2.804662027361160E-04   2.832849349350763E-04   2.861319958636015E-04
   2.890076702301571E-04   2.919122456045762E-04   2.948460124468168E-04
   2.978092641360079E-04   3.008022969997882E-04   3.038254103439375E-04
   3.068789064823102E-04   3.099630907670642E-04   3.130782716191983E-04
   3.162247605593937E-04   3.194028722391666E-04   3.226129244723333E-04
   3.258552382667923E-04   3.291301378566251E-04   3.324379507345194E-04
   3.357790076845200E-04   3.391536428151055E-04   3.425621935926015E-04
   3.460050008749262E-04   3.494824089456768E-04   3.529947655485584E-04
   3.565424219221583E-04   3.601257328350699E-04   3.637450566213711E-04
   3.674007552164560E-04   3.710931941932308E-04   3.748227427986703E-04
   3.785897739907430E-04   3.823946644757074E-04   3.862377947457829E-04
   3.901195491171985E-04   3.940403157686269E-04   3.980004867799999E-04
   4.020004581717189E-04   4.060406299442568E-04   4.101214061181573E-04
   4.142431947744387E-04   4.184064080954012E-04   4.226114624058469E-04
   4.268587782147102E-04   4.311487802571121E-04   4.354818975368313E-04
   4.398585633692069E-04   4.442792154244695E-04   4.487442957715084E-04
   4.532542509220793E-04   4.578095318754559E-04   4.624105941635289E-04
   4.670578978963621E-04   4.717519078082008E-04   4.764930933039482E-04
   4.812819285061048E-04   4.861188923021816E-04   4.910044683925891E-04
   4.959391453390082E-04   5.009234166132446E-04   5.059577806465804E-04
   5.110427408796133E-04   5.161788058126044E-04   5.213664890563273E-04
   5.266063093834295E-04   5.318987907803099E-04   5.372444624995188E-04
   5.426438591126833E-04   5.480975205639636E-04   5.536059922240500E-04
   5.591698249446981E-04   5.647895751138172E-04   5.704658047111074E-04
   5.761990813642582E-04   5.819899784057130E-04   5.878390749300021E-04
   5.937469558516513E-04   5.997142119636770E-04   6.057414399966621E-04
   6.118292426784329E-04   6.179782287943310E-04   6.241890132480922E-04
   6.304622171233374E-04   6.367984677456824E-04   6.431983987454685E-04
   6.496626501211303E-04   6.561918683031909E-04   6.627867062189102E-04
   6.694478233575756E-04   6.761758858364516E-04   6.829715664673932E-04
   6.898355448241263E-04   6.967685073102074E-04   7.037711472276612E-04
   7.108441648463164E-04   7.179882674738276E-04   7.252041695264116E-04
   7.324925926002873E-04   7.398542655438354E-04   7.472899245304853E-04
   7.548003131323325E-04   7.623861823944947E-04   7.700482909102209E-04
   7.777874048967465E-04   7.856042982719200E-04   7.934997527315933E-04
   8.014745578277917E-04   8.095295110476705E-04   8.176654178932650E-04
   8.258830919620383E-04   8.341833550282467E-04   8.425670371251123E-04
   8.510349766278320E-04   8.595880203374125E-04   8.682270235653525E-04
   8.769528502191740E-04   8.857663728888140E-04   8.946684729338846E-04
   9.036600405718076E-04   9.127419749668409E-04   9.219151843199909E-04
   9.311805859598383E-04   9.405391064342680E-04   9.499916816031262E-04
   9.595392567318073E-04   9.691827865857810E-04   9.789232355260674E-04
   9.887615776056795E-04   9.986987966670220E-04   1.008735886440283E-03
   1.018873850642804E-03   1.029113703079454E-03   1.039456467744009E-03
   1.049903178921556E-03   1.060454881291917E-03   1.071112630034123E-03
   1.081877490931928E-03   1.092750540480394E-03   1.103732865993537E-03
   1.114825565713059E-03   1.126029748918178E-03   1.137346536036549E-03
   1.148777058756317E-03   1.160322460139276E-03   1.171983894735190E-03
   1.183762528697233E-03   1.195659539898617E-03   1.207676118050377E-03
   1.219813464820342E-03   1.232072793953305E-03   1.244455331392394E-03
   1.256962315401671E-03   1.269594996689961E-03   1.282354638535919E-03
   1.295242516914362E-03   1.308259920623870E-03   1.321408151415660E-03
   1.334688524123770E-03   1.348102366796535E-03   1.361651020829403E-03
   1.375335841099066E-03   1.389158196098957E-03   1.403119468076093E-03
   1.417221053169306E-03   1.431464361548858E-03   1.445850817557456E-03
   1.460381859852690E-03   1.475058941550898E-03   1.489883530372480E-03
   1.504857108788673E-03   1.519981174169798E-03   1.535257238934995E-03
   1.550686830703469E-03   1.566271492447258E-03   1.582012782645523E-03
   1.597912275440400E-03   1.613971560794419E-03   1.630192244649498E-03
   1.646575949087542E-03   1.663124312492644E-03   1.679838989714936E-03
   1.696721652236071E-03   1.713773988336370E-03   1.730997703263652E-03
   1.748394519403762E-03   1.765966176452813E-03   1.783714431591155E-03
   1.801641059659087E-03   1.819747853334358E-03   1.838036623311424E-03
   1.856509198482525E-03   1.875167426120569E-03   1.894013172063870E-03
   1.913048320902727E-03   1.932274776167886E-03   1.951694460520898E-03
   1.971309315946378E-03   1.991121303946215E-03   2.011132405735721E-03
   2.031344622441751E-03   2.051759975302817E-03   2.072380505871218E-03
   2.093208276217196E-03   2.114245369135144E-03   2.135493888351880E-03
   2.156955958737036E-03   2.178633726515534E-03   2.200529359482221E-03
   2.222645047218634E-03   2.244983001311979E-03   2.267545455576281E-03
   2.290334666275770E-03   2.313352912350504E-03   2.336602495644273E-03
   2.360085741134781E-03   2.383804997166150E-03   2.407762635683744E-03
   2.431961052471382E-03   2.456402667390908E-03   2.481089924624182E-03
   2.506025292917503E-03   2.531211265828474E-03   2.556650361975378E-03
   2.582345125289029E-03   2.608298125267173E-03   2.634511957231430E-03
   2.660989242586843E-03   2.687732629084014E-03   2.714744791083881E-03
   2.742028429825148E-03   2.769586273694429E-03   2.797421078499076E-03
   2.825535627742768E-03   2.853932732903851E-03   2.882615233716510E-03
   2.911585998454729E-03   2.940847924219125E-03   2.970403937226656E-03
   3.000256993103253E-03   3.030410077179385E-03   3.060866204788586E-03
   3.091628421568994E-03   3.122699803767924E-03   3.154083458549490E-03
   3.185782524305323E-03   3.217800170968416E-03   3.250139600330112E-03
   3.282804046360300E-03   3.315796775530803E-03   3.349121087142036E-03
   3.382780313652924E-03   3.416777821014169E-03   3.451117009004841E-03
   3.485801311572356E-03   3.520834197175869E-03   3.556219169133139E-03
   3.591959765970848E-03   3.628059561778466E-03   3.664522166565653E-03
   3.701351226623274E-03   3.738550424888027E-03   3.776123481310742E-03
   3.814074153228365E-03   3.852406235739716E-03   3.891123562084990E-03
   3.930230004029090E-03   3.969729472248792E-03   4.009625916723838E-03
   4.049923327131922E-03   4.090625733247666E-03   4.131737205345606E-03
   4.173261854607202E-03   4.215203833531989E-03   4.257567336352810E-03
   4.300356599455255E-03   4.343575901801284E-03   4.387229565357152E-03
   4.431321955525592E-03   4.475857481582370E-03   4.520840597117195E-03
   4.566275800479113E-03   4.612167635226319E-03   4.658520690580539E-03
   4.705339601885927E-03   4.752629051072633E-03   4.800393767124982E-03
   4.848638526554391E-03   4.897368153876995E-03   4.946587522096142E-03
   4.996301553189668E-03   5.046515218602116E-03   5.097233539741863E-03
   5.148461588483292E-03   5.200204487673971E-03   5.252467411646934E-03
   5.305255586738136E-03   5.358574291809070E-03   5.412428858774678E-03
   5.466824673136535E-03   5.521767174521413E-03   5.577261857225227E-03
   5.633314270762496E-03   5.689930020421286E-03   5.747114767823748E-03
   5.804874231492264E-03   5.863214187421343E-03   5.922140469655190E-03
   5.981658970871142E-03   6.041775642968909E-03   6.102496497665802E-03
   6.163827607097892E-03   6.225775104427239E-03   6.288345184455185E-03
   6.351544104241881E-03   6.415378183731973E-03   6.479853806386611E-03
   6.544977419821777E-03   6.610755536453092E-03   6.677194734147033E-03
   6.744301656878736E-03   6.812083015396404E-03   6.880545587892360E-03
   6.949696220680911E-03   7.019541828882965E-03   7.090089397117550E-03
   7.161345980200268E-03   7.233318703848814E-03   7.306014765395531E-03
   7.379441434507160E-03   7.453606053911788E-03   7.528516040133167E-03
   7.604178884232343E-03   7.680602152556786E-03   7.757793487497001E-03
   7.835760608250815E-03   7.914511311595276E-03   7.994053472666353E-03
   8.074395045746420E-03   8.155544065059750E-03   8.237508645575894E-03
   8.320296983821215E-03   8.403917358698517E-03   8.488378132314974E-03
   8.573687750818338E-03   8.659854745241545E-03   8.746887732355853E-03
   8.834795415532488E-03   8.923586585613029E-03   9.013270121788481E-03
   9.103854992487200E-03   9.195350256271731E-03   9.287765062744707E-03
   9.381108653463787E-03   9.475390362865840E-03   9.570619619200357E-03
   9.666805945472336E-03   9.763958960394559E-03   9.862088379349491E-03
   9.961204015360783E-03   1.006131578007464E-02   1.016243368475097E-02
   1.026456784126450E-02   1.036772846311598E-02   1.047192586645358E-02
   1.057717047110446E-02   1.068347280161680E-02   1.079084348831221E-02
   1.089929326834885E-02   1.100883298679510E-02   1.111947359771410E-02
   1.123122616525912E-02   1.134410186478005E-02   1.145811198394091E-02
   1.157326792384862E-02   1.168958120019315E-02   1.180706344439904E-02
   1.192572640478862E-02   1.204558194775682E-02   1.216664205895782E-02
   1.228891884450361E-02   1.241242453217465E-02   1.253717147264263E-02
   1.266317214070556E-02   1.279043913653523E-02   1.291898518693729E-02
   1.304882314662390E-02   1.317996599949924E-02   1.331242685995786E-02
   1.344621897419620E-02   1.358135572153718E-02   1.371785061576816E-02
   1.385571730649228E-02   1.399496958049353E-02   1.413562136311533E-02
   1.427768671965319E-02   1.442117985676110E-02   1.456611512387239E-02
   1.471250701463453E-02   1.486037016835860E-02   1.500971937148320E-02
   1.516056955905308E-02   1.531293581621271E-02   1.546683337971479E-02
   1.562227763944392E-02   1.577928413995559E-02   1.593786858203070E-02
   1.609804682424562E-02   1.625983488455806E-02   1.642324894190885E-02
   1.658830533783992E-02   1.675502057812840E-02   1.692341133443728E-02
   1.709349444598247E-02   1.726528692121689E-02   1.743880593953122E-02
   1.761406885297190E-02   1.779109318797631E-02   1.796989664712547E-02
   1.815049711091430E-02   1.833291263953972E-02   1.851716147470655E-02
   1.870326204145186E-02   1.889123294998743E-02   1.908109299756073E-02
   1.927286117033478E-02   1.946655664528662E-02   1.966219879212517E-02
   1.985980717522815E-02   2.005940155559856E-02   2.026100189284075E-02
   2.046462834715643E-02   2.067030128136075E-02   2.087804126291854E-02
   2.108786906600102E-02   2.129980567356338E-02   2.151387227944300E-02
   2.173009029047887E-02   2.194848132865224E-02   2.216906723324893E-02
   2.239187006304324E-02   2.261691209850381E-02   2.284421584402171E-02
   2.307380403016093E-02   2.330569961593139E-02   2.353992579108494E-02
   2.377650597843426E-02   2.401546383619524E-02   2.425682326035280E-02
   2.450060838705047E-02   2.474684359500411E-02   2.499555350793967E-02
   2.524676299705573E-02   2.550049718351052E-02   2.575678144093418E-02
   2.601564139796595E-02   2.627710294081731E-02   2.654119221586040E-02
   2.680793563224284E-02   2.707735986452850E-02   2.734949185536515E-02
   2.762435881817865E-02   2.790198823989438E-02   2.818240788368580E-02
   2.846564579175101E-02   2.875173028811685E-02   2.904068998147138E-02
   2.933255376802469E-02   2.962735083439868E-02   2.992511066054564E-02
   3.022586302269636E-02   3.052963799633763E-02   3.083646595921998E-02
   3.114637759439540E-02   3.145940389328565E-02   3.177557615878152E-02
   3.209492600837298E-02   3.241748537731113E-02   3.274328652180167E-02
   3.307236202223059E-02   3.340474478642209E-02   3.374046805292962E-02
   3.407956539435959E-02   3.442207072072876E-02   3.476801828285513E-02
   3.511744267578322E-02   3.547037884224353E-02   3.582686207614684E-02
   3.618692802611356E-02   3.655061269903875E-02   3.691795246369280E-02
   3.728898405435831E-02   3.766374457450349E-02   3.804227150049266E-02
   3.842460268533389E-02   3.881077636246429E-02   3.920083114957333E-02
   3.959480605246479E-02   3.999274046895729E-02   4.039467419282407E-02
   4.080064741777251E-02   4.121070074146334E-02   4.162487516957069E-02
   4.204321211988250E-02   4.246575342644247E-02   4.289254134373329E-02
   4.332361855090239E-02   4.375902815602971E-02   4.419881370043865E-02
   4.464301916305007E-02   4.509168896478043E-02   4.554486797298380E-02
   4.600260150593869E-02   4.646493533737977E-02   4.693191570107549E-02
   4.740358929545137E-02   4.788000328825998E-02   4.836120532129749E-02
   4.884724351516828E-02   4.933816647409676E-02   4.983402329078796E-02
   5.033486355133669E-02   5.084073734018641E-02   5.135169524513759E-02
   5.186778836240648E-02   5.238906830173497E-02   5.291558719155128E-02
   5.344739768418322E-02   5.398455296112323E-02   5.452710673834667E-02
   5.507511327168332E-02   5.562862736224321E-02   5.618770436189666E-02
   5.675240017880960E-02   5.732277128303419E-02   5.789887471215622E-02
   5.848076807699869E-02   5.906850956738306E-02   5.966215795794801E-02
   6.026177261402741E-02   6.086741349758652E-02   6.147914117321845E-02
   6.209701681420043E-02   6.272110220861153E-02   6.335145976551124E-02
   6.398815252118063E-02   6.463124414542570E-02   6.528079894794488E-02
   6.593688188475970E-02   6.659955856471063E-02   6.726889525601779E-02
   6.794495889290815E-02   6.862781708230879E-02   6.931753811060772E-02
   7.001419095048254E-02   7.071784526779773E-02   7.142857142857142E-02
   7.214644050601200E-02   7.287152428762537E-02   7.360389528239401E-02
   7.434362672802779E-02   7.509079259828748E-02   7.584546761038287E-02
   7.660772723244405E-02   7.737764769106847E-02   7.815530597894359E-02
   7.894077986254623E-02   7.973414788991932E-02   8.053548939852692E-02
   8.134488452318733E-02   8.216241420408772E-02   8.298816019487740E-02
   8.382220507084361E-02   8.466463223716895E-02   8.551552593727214E-02
   8.637497126123220E-02   8.724305415429778E-02   8.811986142548174E-02
   8.900548075624155E-02   8.990000070924845E-02   9.080351073724321E-02
   9.171610119198152E-02   9.263786333326940E-02   9.356888933808906E-02
   9.450927230981686E-02   9.545910628753382E-02   9.641848625542886E-02
   9.738750815229846E-02   9.836626888113982E-02   9.935486631884145E-02
   1.003533993259710E-01   1.013619677566612E-01   1.023806724685957E-01
   1.034096153330947E-01   1.044488992453018E-01   1.054986281344745E-01
   1.065589069743765E-01   1.076298417937753E-01   1.087115396870453E-01
   1.098041088248772E-01   1.109076584650954E-01   1.120222989635834E-01
   1.131481417853202E-01   1.142852995155258E-01   1.154338858709210E-01
   1.165940157110985E-01   1.177658050500092E-01   1.189493710675633E-01
   1.201448321213490E-01   1.213523077584678E-01   1.225719187274900E-01
   1.238037869905283E-01   1.250480357354359E-01   1.263047893881240E-01
   1.275741736250053E-01   1.288563153855612E-01   1.301513428850363E-01
   1.314593856272597E-01   1.327805744175960E-01   1.341150413760246E-01
   1.354629199503537E-01   1.368243449295641E-01   1.381994524572880E-01
   1.395883800454242E-01   1.409912665878891E-01   1.424082523745058E-01
   1.438394791050342E-01   1.452850899033395E-01   1.467452293317064E-01
   1.482200434052945E-01   1.497096796067404E-01   1.512142869009054E-01
   1.527340157497727E-01   1.542690181274939E-01   1.558194475355857E-01
   1.573854590182813E-01   1.589672091780335E-01   1.605648561911766E-01
   1.621785598237433E-01   1.638084814474416E-01   1.654547840557923E-01
   1.671176322804279E-01   1.687971924075567E-01   1.704936323945914E-01
   1.722071218869437E-01   1.739378322349912E-01   1.756859365112108E-01
   1.774516095274869E-01   1.792350278525927E-01   1.810363698298467E-01
   1.828558155949479E-01   1.846935470939892E-01   1.865497481016514E-01
   1.884246042395825E-01   1.903183029949584E-01   1.922310337392331E-01
   1.941629877470747E-01   1.961143582154940E-01   1.980853402831641E-01
   2.000761310499341E-01   2.020869295965401E-01   2.041179370045118E-01
   2.061693563762828E-01   2.082413928554998E-01   2.103342536475374E-01
   2.124481480402189E-01   2.145832874247451E-01   2.167398853168339E-01
   2.189181573780718E-01   2.211183214374796E-01   2.233405975132970E-01
   2.255852078349835E-01   2.278523768654418E-01   2.301423313234643E-01
   2.324553002064050E-01   2.347915148130797E-01   2.371512087668965E-01
   2.395346180392162E-01   2.419419809729526E-01   2.443735383064054E-01
   2.468295331973340E-01   2.493102112472744E-01   2.518158205260987E-01
   2.543466115968228E-01   2.569028375406628E-01   2.594847539823438E-01
   2.620926191156605E-01   2.647266937293001E-01   2.673872412329188E-01
   2.700745276834843E-01   2.727888218118811E-01   2.755303950497838E-01
   2.782995215568009E-01   2.810964782478912E-01   2.839215448210536E-01
   2.867750037853002E-01   2.896571404889055E-01   2.925682431479412E-01
   2.955086028750994E-01   2.984785137088032E-01   3.014782726426107E-01
   3.045081796549159E-01   3.075685377389435E-01   3.106596529330531E-01
   3.137818343513399E-01   3.169353942145475E-01   3.201206478812903E-01
   3.233379138795894E-01   3.265875139387255E-01   3.298697730214127E-01
   3.331850193562950E-01   3.365335844707675E-01   3.399158032241326E-01
   3.433320138410843E-01   3.467825579455310E-01   3.502677805947587E-01
   3.537880303139366E-01   3.573436591309704E-01   3.609350226117051E-01
   3.645624798954807E-01   3.682263937310489E-01   3.719271305128465E-01
   3.756650603176356E-01   3.794405569415119E-01   3.832539979372838E-01
   3.871057646522288E-01   3.909962422662289E-01   3.949258198302864E-01
   3.988948903054327E-01   4.029038506020231E-01   4.069531016194280E-01
   4.110430482861236E-01   4.151740996001848E-01   4.193466686701856E-01
   4.235611727565102E-01   4.278180333130799E-01   4.321176760294964E-01
   4.364605308736152E-01   4.408470321345396E-01   4.452776184660512E-01
   4.497527329304755E-01   4.542728230429878E-01   4.588383408163664E-01
   4.634497428061941E-01   4.681074901565109E-01   4.728120486459343E-01
   4.775638887342337E-01   4.823634856093776E-01   4.872113192350535E-01
   4.921078743986637E-01   4.970536407598049E-01   5.020491128992358E-01
   5.070947903683314E-01   5.121911777390441E-01   5.173387846543582E-01
   5.225381258792549E-01   5.277897213521893E-01   5.330940962370853E-01
   5.384517809758513E-01   5.438633113414264E-01   5.493292284913575E-01
   5.548500790219127E-01   5.604264150227466E-01   5.660587941321065E-01
   5.717477795925967E-01   5.774939403075042E-01   5.832978508976890E-01
   5.891600917590469E-01   5.950812491205500E-01   6.010619151028669E-01
   6.071026877775806E-01   6.132041712269926E-01   6.193669756045326E-01
   6.255917171957739E-01   6.318790184800628E-01   6.382295081927675E-01
   6.446438213881522E-01   6.511225995028795E-01   6.576664904201612E-01
   6.642761485345421E-01   6.709522348173417E-01   6.776954168827519E-01
   6.845063690545983E-01   6.913857724337741E-01   6.983343149663499E-01
   7.053526915123708E-01   7.124416039153376E-01   7.196017610723994E-01
   7.268338790052384E-01   7.341386809316749E-01   7.415168973379888E-01
   7.489692660519693E-01   7.564965323166982E-01   7.640994488650759E-01
   7.717787759950905E-01   7.795352816458557E-01   7.873697414744003E-01
   7.952829389332362E-01   8.032756653487032E-01   8.113487200001038E-01
   8.195029101996305E-01   8.277390513731001E-01   8.360579671414904E-01
   8.444604894033121E-01   8.529474584177935E-01   8.615197228889085E-01
   8.701781400502481E-01   8.789235757507435E-01   8.877569045412528E-01
   8.966790097620160E-01   9.056907836309920E-01   9.147931273330744E-01
   9.239869511102202E-01   9.332731743524688E-01   9.426527256898828E-01
   9.521265430854122E-01   9.616955739286919E-01   9.713607751307799E-01
   9.811231132198527E-01   9.909835644378512E-01   1.000943114838116E+00
   1.011002760383986E+00   1.021163507048400E+00   1.031426370914492E+00
   1.041792378277199E+00   1.052262565745897E+00   1.062837980348061E+00
   1.073519679633958E+00   1.084308731782422E+00   1.095206215707657E+00
   1.106213221167138E+00   1.117330848870584E+00   1.128560210590028E+00
   1.139902429271002E+00   1.151358639144824E+00   1.162929985842032E+00
   1.174617626506933E+00   1.186422729913336E+00   1.198346476581420E+00
   1.210390058895787E+00   1.222554681224705E+00   1.234841560040545E+00
   1.247251924041427E+00   1.259787014274096E+00   1.272448084258015E+00
   1.285236400110737E+00   1.298153240674505E+00   1.311199897644137E+00
   1.324377675696205E+00   1.337687892619494E+00   1.351131879446788E+00
   1.364710980587976E+00   1.378426553964484E+00   1.392279971145081E+00
   1.406272617483029E+00   1.420405892254623E+00   1.434681208799119E+00
   1.449099994660066E+00   1.463663691728067E+00   1.478373756384963E+00
   1.493231659649484E+00   1.508238887324330E+00   1.523396940144780E+00
   1.538707333928744E+00   1.554171599728363E+00   1.569791283983101E+00
   1.585567948674402E+00   1.601503171481881E+00   1.617598545941101E+00
   1.633855681602916E+00   1.650276204194443E+00   1.666861755781623E+00
   1.683613994933438E+00   1.700534596887762E+00   1.717625253718892E+00
   1.734887674506753E+00   1.752323585507812E+00   1.769934730327694E+00
   1.787722870095559E+00   1.805689783640207E+00   1.823837267667966E+00
   1.842167136942362E+00   1.860681224465595E+00   1.879381381661849E+00
   1.898269478562424E+00   1.917347403992756E+00   1.936617065761279E+00
   1.956080390850231E+00   1.975739325608340E+00   1.995595835945465E+00
   2.015651907529187E+00   2.035909545983376E+00   2.056370777088762E+00
   2.077037646985507E+00   2.097912222377818E+00   2.118996590740633E+00
   2.140292860528359E+00   2.161803161385720E+00   2.183529644360729E+00
   2.205474482119788E+00   2.227639869164960E+00   2.250028022053426E+00
   2.272641179619123E+00   2.295481603196655E+00   2.318551576847415E+00
   2.341853407587993E+00   2.365389425620879E+00   2.389161984567493E+00
   2.413173461703539E+00   2.437426258196739E+00   2.461922799346958E+00
   2.486665534828718E+00   2.511656938936188E+00   2.536899510830606E+00
   2.562395774790197E+00   2.588148280462605E+00   2.614159603119855E+00
   2.640432343915891E+00   2.666969130146692E+00   2.693772615512984E+00
   2.720845480385645E+00   2.748190432073724E+00   2.775810205095176E+00
   2.803707561450321E+00   2.831885290898042E+00   2.860346211234764E+00
   2.889093168576245E+00   2.918129037642164E+00   2.947456722043630E+00
   2.977079154573522E+00   3.006999297499779E+00   3.037220142861627E+00
   3.067744712768786E+00   3.098576059703686E+00   3.129717266826710E+00
   3.161171448284529E+00   3.192941749521490E+00   3.225031347594196E+00
   3.257443451489196E+00   3.290181302443891E+00   3.323248174270657E+00
   3.356647373684233E+00   3.390382240632392E+00   3.424456148629950E+00
   3.458872505096087E+00   3.493634751695136E+00   3.528746364680728E+00
   3.564210855243419E+00   3.600031769861820E+00   3.636212690657244E+00
   3.672757235751921E+00   3.709669059630821E+00   3.746951853507078E+00
   3.784609345691157E+00   3.822645301963656E+00   3.861063525951900E+00
   3.899867859510302E+00   3.939062183104557E+00   3.978650416199685E+00
   4.018636517651993E+00   4.059024486104934E+00   4.099818360389017E+00
   4.141022219925666E+00   4.182640185135170E+00   4.224676417848733E+00
   4.267135121724657E+00   4.310020542668711E+00   4.353336969258726E+00
   4.397088733173470E+00   4.441280209625775E+00   4.485915817800122E+00
   4.531000021294525E+00   4.576537328566903E+00   4.622532293385931E+00
   4.668989515286421E+00   4.715913640029278E+00   4.763309360066087E+00
   4.811181415008332E+00   4.859534592101409E+00   4.908373726703322E+00
   4.957703702768229E+00   5.007529453334847E+00   5.057855961019754E+00
   5.108688258515657E+00   5.160031429094674E+00   5.211890607116634E+00
   5.264270978542561E+00   5.317177781453249E+00   5.370616306573079E+00
   5.424591897799095E+00   5.479109952735399E+00   5.534175923232916E+00
   5.589795315934587E+00   5.645973692826038E+00   5.702716671791755E+00
   5.760029927176932E+00   5.817919190354867E+00   5.876390250300120E+00
   5.935448954167412E+00   5.995101207876344E+00   6.055352976701997E+00
   6.116210285871476E+00   6.177679221166390E+00   6.239765929531505E+00
   6.302476619689394E+00   6.365817562761334E+00   6.429795092894415E+00
   6.494415607894966E+00   6.559685569868338E+00   6.625611505865131E+00
   6.692200008533861E+00   6.759457736780297E+00   6.827391416433309E+00
   6.896007840917477E+00   6.965313871932429E+00   7.035316440139022E+00
   7.106022545852412E+00   7.177439259742093E+00   7.249573723538980E+00
   7.322433150749539E+00   7.396024827377222E+00   7.470356112651016E+00
   7.545434439761394E+00   7.621267316603630E+00   7.697862326528605E+00
   7.775227129101138E+00   7.853369460865972E+00   7.932297136121377E+00
   8.012018047700662E+00   8.092540167761422E+00   8.173871548582765E+00
   8.256020323370548E+00   8.338994707070707E+00   8.422802997190759E+00
   8.507453574629571E+00   8.592954904515398E+00   8.679315537052497E+00
   8.766544108376090E+00   8.854649341415996E+00   8.943640046768945E+00
   9.033525123579626E+00   9.124313560430629E+00   9.216014436241295E+00
   9.308636921175639E+00   9.402190277559310E+00   9.496683860805918E+00
   9.592127120352538E+00   9.688529600604658E+00   9.785900941890642E+00
   9.884250881425757E+00   9.983589254285919E+00   1.008392599439121E+01
   1.018527113549923E+01   1.028763481220855E+01   1.039102726097215E+01
   1.049545882112106E+01   1.060093993589833E+01   1.070748115350333E+01
   1.081509312814662E+01   1.092378662111535E+01   1.103357250184936E+01
   1.114446174902822E+01   1.125646545166907E+01   1.136959481023551E+01
   1.148386113775767E+01   1.159927586096351E+01   1.171585052142155E+01
   1.183359677669497E+01   1.195252640150744E+01   1.207265128892052E+01
   1.219398345152307E+01   1.231653502263245E+01   1.244031825750791E+01
   1.256534553457609E+01   1.269162935666889E+01   1.281918235227374E+01
   1.294801727679653E+01   1.307814701383702E+01   1.320958457647740E+01
   1.334234310858344E+01   1.347643588611900E+01   1.361187631847357E+01
   1.374867794980326E+01   1.388685446038519E+01   1.402641966798561E+01
   1.416738752924153E+01   1.430977214105656E+01   1.445358774201055E+01
   1.459884871378343E+01   1.474556958259345E+01   1.489376502064973E+01
   1.504344984761960E+01   1.519463903211047E+01   1.534734769316683E+01
   1.550159110178197E+01   1.565738468242533E+01   1.581474401458480E+01
   1.597368483432472E+01   1.613422303585952E+01   1.629637467314314E+01
   1.646015596147443E+01   1.662558327911874E+01   1.679267316894563E+01
   1.696144234008335E+01   1.713190766958967E+01   1.730408620413958E+01
   1.747799516173003E+01   1.765365193340169E+01   1.783107408497812E+01
   1.801027935882236E+01   1.819128567561106E+01   1.837411113612678E+01
   1.855877402306793E+01   1.874529280287707E+01   1.893368612758763E+01
   1.912397283668908E+01   1.931617195901089E+01   1.951030271462547E+01
   1.970638451677019E+01   1.990443697378858E+01   2.010447989109145E+01
   2.030653327313721E+01   2.051061732543246E+01   2.071675245655248E+01
   2.092495928018218E+01   2.113525861717741E+01   2.134767149764718E+01
   2.156221916305646E+01   2.177892306835063E+01   2.199780488410079E+01
   2.221888649867092E+01   2.244219002040673E+01   2.266773777984646E+01
   2.289555233195402E+01   2.312565645837451E+01   2.335807316971224E+01
   2.359282570783207E+01   2.382993754818343E+01   2.406943240214795E+01
   2.431133421941062E+01   2.455566719035475E+01   2.480245574848103E+01
   2.505172457285095E+01   2.530349859055470E+01   2.555780297920378E+01
   2.581466316944902E+01   2.607410484752349E+01   2.633615395781121E+01
   2.660083670544159E+01   2.686817955890994E+01   2.713820925272441E+01
   2.741095279007945E+01   2.768643744555598E+01   2.796469076784918E+01
   2.824574058252315E+01   2.852961499479357E+01   2.881634239233822E+01
   2.910595144813581E+01   2.939847112333325E+01   2.969393067014189E+01
   2.999235963476251E+01   3.029378786034033E+01   3.059824548994908E+01
   3.090576296960545E+01   3.121637105131368E+01   3.153010079614076E+01
   3.184698357732263E+01   3.216705108340147E+01   3.249033532139467E+01
   3.281686861999533E+01   3.314668363280547E+01   3.347981334160121E+01
   3.381629105963106E+01   3.415615043494720E+01   3.449942545377039E+01
   3.484615044388858E+01   3.519636007808977E+01   3.555008937762911E+01
   3.590737371573138E+01   3.626824882112813E+01   3.663275078163065E+01
   3.700091604773871E+01   3.737278143628576E+01   3.774838413412051E+01
   3.812776170182584E+01   3.851095207747453E+01   3.889799358042353E+01
   3.928892491514568E+01   3.968378517510022E+01   4.008261384664219E+01
   4.048545081297112E+01   4.089233635811934E+01   4.130331117098044E+01
   4.171841634937824E+01   4.213769340417637E+01   4.256118426342978E+01
   4.298893127657730E+01   4.342097721867672E+01   4.385736529468226E+01
   4.429813914376520E+01   4.474334284367776E+01   4.519302091516101E+01
   4.564721832639667E+01   4.610598049750444E+01   4.656935330508374E+01
   4.703738308680148E+01   4.751011664602584E+01   4.798760125650671E+01
   4.846988466710302E+01   4.895701510655784E+01   4.944904128832088E+01
   4.994601241542041E+01   5.044797818538331E+01   5.095498879520487E+01
   5.146709494636858E+01   5.198434784991632E+01   5.250679923156947E+01
   5.303450133690160E+01   5.356750693656308E+01   5.410586933155786E+01
   5.464964235857417E+01   5.519888039536785E+01   5.575363836620030E+01
   5.631397174733088E+01   5.687993657256467E+01   5.745158943885581E+01
   5.802898751196743E+01   5.861218853218779E+01   5.920125082010502E+01
   5.979623328243881E+01   6.039719541793119E+01   6.100419732329654E+01
   6.161729969923122E+01   6.223656385648373E+01   6.286205172198599E+01
   6.349382584504555E+01   6.413194940360131E+01   6.477648621054091E+01
   6.542750072008214E+01   6.608505803421846E+01   6.674922390922930E+01
   6.742006476225558E+01   6.809764767794167E+01   6.878204041514390E+01
   6.947331141370607E+01   7.017152980130425E+01   7.087676540035902E+01
   7.158908873501800E+01   7.230857103820824E+01   7.303528425875966E+01
   7.376930106859989E+01   7.451069487002171E+01   7.525953980302289E+01
   7.601591075272086E+01   7.677988335684088E+01   7.755153401328005E+01
   7.833093988774704E+01   7.911817892147882E+01   7.991332983903476E+01
   8.071647215616942E+01   8.152768618778350E+01   8.234705305595632E+01
   8.317465469805752E+01   8.401057387494096E+01   8.485489417922095E+01
   8.570770004363149E+01   8.656907674946974E+01   8.743911043512405E+01
   8.831788810468821E+01   8.920549763666118E+01   9.010202779273595E+01
   9.100756822667529E+01   9.192220949327717E+01   9.284604305743049E+01
   9.377916130326150E+01   9.472165754337242E+01   9.567362602817279E+01
   9.663516195530414E+01   9.760636147916055E+01   9.858732172050381E+01
   9.957814077617547E+01
    </PP_R>
    <PP_RAB>
   2.396161627875085E-07   2.420243452595901E-07   2.444567303678853E-07
   2.469135613529321E-07   2.493950838998760E-07   2.519015461630398E-07
   2.544331987907386E-07   2.569902949503451E-07   2.595730903536056E-07
   2.621818432822131E-07   2.648168146136344E-07   2.674782678471988E-07
   2.701664691304470E-07   2.728816872857476E-07   2.756241938371790E-07
   2.783942630376820E-07   2.811921718964845E-07   2.840182002068042E-07
   2.868726305738272E-07   2.897557484429692E-07   2.926678421284192E-07
   2.956092028419726E-07   2.985801247221521E-07   3.015809048636216E-07
   3.046118433468956E-07   3.076732432683483E-07   3.107654107705229E-07
   3.138886550727467E-07   3.170432885020529E-07   3.202296265244125E-07
   3.234479877762835E-07   3.266986940964730E-07   3.299820705583223E-07
   3.332984455022132E-07   3.366481505684038E-07   3.400315207301924E-07
   3.434488943274148E-07   3.469006131002780E-07   3.503870222235361E-07
   3.539084703410067E-07   3.574653096004363E-07   3.610578956887145E-07
   3.646865878674441E-07   3.683517490088670E-07   3.720537456321519E-07
   3.757929479400456E-07   3.795697298558950E-07   3.833844690610392E-07
   3.872375470325779E-07   3.911293490815187E-07   3.950602643913097E-07
   3.990306860567580E-07   4.030410111233384E-07   4.070916406269003E-07
   4.111829796337687E-07   4.153154372812540E-07   4.194894268185652E-07
   4.237053656481336E-07   4.279636753673558E-07   4.322647818107523E-07
   4.366091150925516E-07   4.409971096497028E-07   4.454292042853175E-07
   4.499058422125528E-07   4.544274710989323E-07   4.589945431111127E-07
   4.636075149601008E-07   4.682668479469256E-07   4.729730080087689E-07
   4.777264657655588E-07   4.825276965670317E-07   4.873771805402691E-07
   4.922754026377094E-07   4.972228526856447E-07   5.022200254332020E-07
   5.072674206018208E-07   5.123655429352239E-07   5.175149022498933E-07
   5.227160134860520E-07   5.279693967591569E-07   5.332755774119138E-07
   5.386350860668101E-07   5.440484586791767E-07   5.495162365907863E-07
   5.550389665839868E-07   5.606172009363798E-07   5.662514974760494E-07
   5.719424196373438E-07   5.776905365172224E-07   5.834964229321631E-07
   5.893606594756462E-07   5.952838325762117E-07   6.012665345561065E-07
   6.073093636905139E-07   6.134129242673837E-07   6.195778266478589E-07
   6.258046873273154E-07   6.320941289970104E-07   6.384467806063525E-07
   6.448632774257955E-07   6.513442611103688E-07   6.578903797638418E-07
   6.645022880035351E-07   6.711806470257830E-07   6.779261246720520E-07
   6.847393954957285E-07   6.916211408295733E-07   6.985720488538533E-07
   7.055928146651639E-07   7.126841403459372E-07   7.198467350346503E-07
   7.270813149967420E-07   7.343886036962355E-07   7.417693318680916E-07
   7.492242375912780E-07   7.567540663625786E-07   7.643595711711461E-07
   7.720415125737989E-07   7.798006587710791E-07   7.876377856840727E-07
   7.955536770320024E-07   8.035491244105982E-07   8.116249273712613E-07
   8.197818935010189E-07   8.280208385032795E-07   8.363425862794104E-07
   8.447479690111234E-07   8.532378272436966E-07   8.618130099700288E-07
   8.704743747155373E-07   8.792227876239150E-07   8.880591235437440E-07
   8.969842661159782E-07   9.059991078623136E-07   9.151045502744366E-07
   9.243015039041771E-07   9.335908884545626E-07   9.429736328717877E-07
   9.524506754381138E-07   9.620229638656961E-07   9.716914553913527E-07
   9.814571168722941E-07   9.913209248828064E-07   1.001283865811910E-06
   1.011346935962002E-06   1.021511141648482E-06   1.031777499300388E-06
   1.042147035562042E-06   1.052620787395712E-06   1.063199802185307E-06
   1.073885137841123E-06   1.084677862905631E-06   1.095579056660331E-06
   1.106589809233683E-06   1.117711221710119E-06   1.128944406240155E-06
   1.140290486151606E-06   1.151750596061917E-06   1.163325881991629E-06
   1.175017501478982E-06   1.186826623695667E-06   1.198754429563748E-06
   1.210802111873751E-06   1.222970875403945E-06   1.235261937040827E-06
   1.247676525900800E-06   1.260215883453097E-06   1.272881263643923E-06
   1.285673933021851E-06   1.298595170864479E-06   1.311646269306362E-06
   1.324828533468217E-06   1.338143281587445E-06   1.351591845149957E-06
   1.365175569023313E-06   1.378895811591221E-06   1.392753944889372E-06
   1.406751354742644E-06   1.420889440903688E-06   1.435169617192900E-06
   1.449593311639810E-06   1.464161966625884E-06   1.478877039028758E-06
   1.493740000367936E-06   1.508752336951939E-06   1.523915550026935E-06
   1.539231155926868E-06   1.554700686225090E-06   1.570325687887523E-06
   1.586107723427354E-06   1.602048371061288E-06   1.618149224867373E-06
   1.634411894944407E-06   1.650838007572949E-06   1.667429205377952E-06
   1.684187147493024E-06   1.701113509726336E-06   1.718209984728221E-06
   1.735478282160427E-06   1.752920128867083E-06   1.770537269047399E-06
   1.788331464430072E-06   1.806304494449468E-06   1.824458156423570E-06
   1.842794265733700E-06   1.861314656006070E-06   1.880021179295143E-06
   1.898915706268834E-06   1.918000126395586E-06   1.937276348133317E-06
   1.956746299120263E-06   1.976411926367749E-06   1.996275196454889E-06
   2.016338095725240E-06   2.036602630485453E-06   2.057070827205888E-06
   2.077744732723274E-06   2.098626414445393E-06   2.119717960557817E-06
   2.141021480232735E-06   2.162539103839868E-06   2.184272983159505E-06
   2.206225291597694E-06   2.228398224403568E-06   2.250793998888887E-06
   2.273414854649762E-06   2.296263053790621E-06   2.319340881150419E-06
   2.342650644531124E-06   2.366194674928495E-06   2.389975326765196E-06
   2.413994978126225E-06   2.438256030996736E-06   2.462760911502233E-06
   2.487512070151188E-06   2.512511982080092E-06   2.537763147300970E-06
   2.563268090951391E-06   2.589029363546969E-06   2.615049541236434E-06
   2.641331226059237E-06   2.667877046205762E-06   2.694689656280146E-06
   2.721771737565741E-06   2.749125998293243E-06   2.776755173911522E-06
   2.804662027361160E-06   2.832849349350763E-06   2.861319958636014E-06
   2.890076702301570E-06   2.919122456045762E-06   2.948460124468168E-06
   2.978092641360079E-06   3.008022969997882E-06   3.038254103439375E-06
   3.068789064823102E-06   3.099630907670642E-06   3.130782716191983E-06
   3.162247605593937E-06   3.194028722391666E-06   3.226129244723333E-06
   3.258552382667923E-06   3.291301378566251E-06   3.324379507345194E-06
   3.357790076845200E-06   3.391536428151055E-06   3.425621935926015E-06
   3.460050008749263E-06   3.494824089456768E-06   3.529947655485584E-06
   3.565424219221583E-06   3.601257328350699E-06   3.637450566213711E-06
   3.674007552164560E-06   3.710931941932308E-06   3.748227427986703E-06
   3.785897739907430E-06   3.823946644757074E-06   3.862377947457828E-06
   3.901195491171985E-06   3.940403157686269E-06   3.980004867799999E-06
   4.020004581717190E-06   4.060406299442568E-06   4.101214061181573E-06
   4.142431947744386E-06   4.184064080954013E-06   4.226114624058470E-06
   4.268587782147102E-06   4.311487802571122E-06   4.354818975368313E-06
   4.398585633692070E-06   4.442792154244695E-06   4.487442957715084E-06
   4.532542509220793E-06   4.578095318754559E-06   4.624105941635290E-06
   4.670578978963622E-06   4.717519078082008E-06   4.764930933039481E-06
   4.812819285061048E-06   4.861188923021817E-06   4.910044683925891E-06
   4.959391453390082E-06   5.009234166132446E-06   5.059577806465804E-06
   5.110427408796133E-06   5.161788058126044E-06   5.213664890563274E-06
   5.266063093834295E-06   5.318987907803099E-06   5.372444624995188E-06
   5.426438591126833E-06   5.480975205639636E-06   5.536059922240500E-06
   5.591698249446982E-06   5.647895751138172E-06   5.704658047111074E-06
   5.761990813642583E-06   5.819899784057130E-06   5.878390749300021E-06
   5.937469558516513E-06   5.997142119636769E-06   6.057414399966620E-06
   6.118292426784329E-06   6.179782287943310E-06   6.241890132480922E-06
   6.304622171233373E-06   6.367984677456824E-06   6.431983987454685E-06
   6.496626501211303E-06   6.561918683031909E-06   6.627867062189102E-06
   6.694478233575756E-06   6.761758858364516E-06   6.829715664673932E-06
   6.898355448241263E-06   6.967685073102074E-06   7.037711472276613E-06
   7.108441648463163E-06   7.179882674738277E-06   7.252041695264116E-06
   7.324925926002872E-06   7.398542655438354E-06   7.472899245304854E-06
   7.548003131323325E-06   7.623861823944947E-06   7.700482909102210E-06
   7.777874048967465E-06   7.856042982719201E-06   7.934997527315934E-06
   8.014745578277917E-06   8.095295110476705E-06   8.176654178932651E-06
   8.258830919620383E-06   8.341833550282466E-06   8.425670371251123E-06
   8.510349766278320E-06   8.595880203374126E-06   8.682270235653525E-06
   8.769528502191739E-06   8.857663728888140E-06   8.946684729338846E-06
   9.036600405718076E-06   9.127419749668409E-06   9.219151843199910E-06
   9.311805859598383E-06   9.405391064342679E-06   9.499916816031263E-06
   9.595392567318073E-06   9.691827865857810E-06   9.789232355260675E-06
   9.887615776056795E-06   9.986987966670219E-06   1.008735886440283E-05
   1.018873850642804E-05   1.029113703079454E-05   1.039456467744009E-05
   1.049903178921556E-05   1.060454881291917E-05   1.071112630034123E-05
   1.081877490931928E-05   1.092750540480394E-05   1.103732865993537E-05
   1.114825565713059E-05   1.126029748918178E-05   1.137346536036549E-05
   1.148777058756317E-05   1.160322460139276E-05   1.171983894735190E-05
   1.183762528697233E-05   1.195659539898617E-05   1.207676118050377E-05
   1.219813464820342E-05   1.232072793953305E-05   1.244455331392394E-05
   1.256962315401671E-05   1.269594996689961E-05   1.282354638535919E-05
   1.295242516914362E-05   1.308259920623870E-05   1.321408151415660E-05
   1.334688524123770E-05   1.348102366796535E-05   1.361651020829403E-05
   1.375335841099066E-05   1.389158196098957E-05   1.403119468076093E-05
   1.417221053169306E-05   1.431464361548858E-05   1.445850817557456E-05
   1.460381859852690E-05   1.475058941550898E-05   1.489883530372480E-05
   1.504857108788673E-05   1.519981174169798E-05   1.535257238934995E-05
   1.550686830703469E-05   1.566271492447258E-05   1.582012782645523E-05
   1.597912275440400E-05   1.613971560794419E-05   1.630192244649498E-05
   1.646575949087542E-05   1.663124312492643E-05   1.679838989714936E-05
   1.696721652236071E-05   1.713773988336371E-05   1.730997703263652E-05
   1.748394519403762E-05   1.765966176452813E-05   1.783714431591155E-05
   1.801641059659087E-05   1.819747853334358E-05   1.838036623311424E-05
   1.856509198482525E-05   1.875167426120569E-05   1.894013172063870E-05
   1.913048320902727E-05   1.932274776167886E-05   1.951694460520898E-05
   1.971309315946378E-05   1.991121303946215E-05   2.011132405735721E-05
   2.031344622441751E-05   2.051759975302817E-05   2.072380505871218E-05
   2.093208276217196E-05   2.114245369135144E-05   2.135493888351880E-05
   2.156955958737036E-05   2.178633726515535E-05   2.200529359482221E-05
   2.222645047218634E-05   2.244983001311980E-05   2.267545455576281E-05
   2.290334666275770E-05   2.313352912350504E-05   2.336602495644273E-05
   2.360085741134781E-05   2.383804997166150E-05   2.407762635683744E-05
   2.431961052471382E-05   2.456402667390908E-05   2.481089924624182E-05
   2.506025292917503E-05   2.531211265828474E-05   2.556650361975378E-05
   2.582345125289029E-05   2.608298125267173E-05   2.634511957231430E-05
   2.660989242586843E-05   2.687732629084015E-05   2.714744791083881E-05
   2.742028429825148E-05   2.769586273694429E-05   2.797421078499076E-05
   2.825535627742768E-05   2.853932732903851E-05   2.882615233716510E-05
   2.911585998454729E-05   2.940847924219125E-05   2.970403937226656E-05
   3.000256993103254E-05   3.030410077179385E-05   3.060866204788586E-05
   3.091628421568994E-05   3.122699803767924E-05   3.154083458549490E-05
   3.185782524305322E-05   3.217800170968416E-05   3.250139600330112E-05
   3.282804046360301E-05   3.315796775530803E-05   3.349121087142036E-05
   3.382780313652924E-05   3.416777821014169E-05   3.451117009004841E-05
   3.485801311572356E-05   3.520834197175870E-05   3.556219169133139E-05
   3.591959765970848E-05   3.628059561778466E-05   3.664522166565653E-05
   3.701351226623274E-05   3.738550424888028E-05   3.776123481310742E-05
   3.814074153228365E-05   3.852406235739716E-05   3.891123562084990E-05
   3.930230004029090E-05   3.969729472248792E-05   4.009625916723838E-05
   4.049923327131922E-05   4.090625733247666E-05   4.131737205345606E-05
   4.173261854607202E-05   4.215203833531989E-05   4.257567336352810E-05
   4.300356599455255E-05   4.343575901801284E-05   4.387229565357152E-05
   4.431321955525592E-05   4.475857481582370E-05   4.520840597117195E-05
   4.566275800479113E-05   4.612167635226319E-05   4.658520690580539E-05
   4.705339601885927E-05   4.752629051072633E-05   4.800393767124982E-05
   4.848638526554391E-05   4.897368153876995E-05   4.946587522096142E-05
   4.996301553189669E-05   5.046515218602116E-05   5.097233539741863E-05
   5.148461588483292E-05   5.200204487673971E-05   5.252467411646934E-05
   5.305255586738137E-05   5.358574291809070E-05   5.412428858774678E-05
   5.466824673136535E-05   5.521767174521413E-05   5.577261857225227E-05
   5.633314270762496E-05   5.689930020421287E-05   5.747114767823748E-05
   5.804874231492264E-05   5.863214187421342E-05   5.922140469655190E-05
   5.981658970871142E-05   6.041775642968909E-05   6.102496497665803E-05
   6.163827607097892E-05   6.225775104427238E-05   6.288345184455186E-05
   6.351544104241882E-05   6.415378183731973E-05   6.479853806386611E-05
   6.544977419821777E-05   6.610755536453093E-05   6.677194734147033E-05
   6.744301656878736E-05   6.812083015396404E-05   6.880545587892360E-05
   6.949696220680912E-05   7.019541828882965E-05   7.090089397117550E-05
   7.161345980200267E-05   7.233318703848815E-05   7.306014765395531E-05
   7.379441434507160E-05   7.453606053911789E-05   7.528516040133167E-05
   7.604178884232344E-05   7.680602152556786E-05   7.757793487497001E-05
   7.835760608250815E-05   7.914511311595276E-05   7.994053472666354E-05
   8.074395045746421E-05   8.155544065059750E-05   8.237508645575894E-05
   8.320296983821215E-05   8.403917358698517E-05   8.488378132314974E-05
   8.573687750818338E-05   8.659854745241546E-05   8.746887732355854E-05
   8.834795415532489E-05   8.923586585613029E-05   9.013270121788481E-05
   9.103854992487200E-05   9.195350256271732E-05   9.287765062744707E-05
   9.381108653463788E-05   9.475390362865840E-05   9.570619619200357E-05
   9.666805945472336E-05   9.763958960394559E-05   9.862088379349490E-05
   9.961204015360784E-05   1.006131578007464E-04   1.016243368475097E-04
   1.026456784126450E-04   1.036772846311598E-04   1.047192586645358E-04
   1.057717047110446E-04   1.068347280161680E-04   1.079084348831221E-04
   1.089929326834885E-04   1.100883298679510E-04   1.111947359771410E-04
   1.123122616525912E-04   1.134410186478005E-04   1.145811198394091E-04
   1.157326792384862E-04   1.168958120019315E-04   1.180706344439904E-04
   1.192572640478862E-04   1.204558194775682E-04   1.216664205895782E-04
   1.228891884450361E-04   1.241242453217465E-04   1.253717147264263E-04
   1.266317214070556E-04   1.279043913653523E-04   1.291898518693729E-04
   1.304882314662390E-04   1.317996599949924E-04   1.331242685995786E-04
   1.344621897419620E-04   1.358135572153718E-04   1.371785061576816E-04
   1.385571730649228E-04   1.399496958049353E-04   1.413562136311533E-04
   1.427768671965318E-04   1.442117985676110E-04   1.456611512387239E-04
   1.471250701463453E-04   1.486037016835860E-04   1.500971937148320E-04
   1.516056955905308E-04   1.531293581621271E-04   1.546683337971479E-04
   1.562227763944392E-04   1.577928413995559E-04   1.593786858203070E-04
   1.609804682424562E-04   1.625983488455806E-04   1.642324894190885E-04
   1.658830533783992E-04   1.675502057812840E-04   1.692341133443728E-04
   1.709349444598247E-04   1.726528692121689E-04   1.743880593953122E-04
   1.761406885297190E-04   1.779109318797631E-04   1.796989664712547E-04
   1.815049711091430E-04   1.833291263953972E-04   1.851716147470655E-04
   1.870326204145186E-04   1.889123294998743E-04   1.908109299756073E-04
   1.927286117033478E-04   1.946655664528662E-04   1.966219879212517E-04
   1.985980717522815E-04   2.005940155559857E-04   2.026100189284075E-04
   2.046462834715643E-04   2.067030128136075E-04   2.087804126291854E-04
   2.108786906600102E-04   2.129980567356338E-04   2.151387227944300E-04
   2.173009029047887E-04   2.194848132865224E-04   2.216906723324893E-04
   2.239187006304324E-04   2.261691209850381E-04   2.284421584402171E-04
   2.307380403016093E-04   2.330569961593139E-04   2.353992579108495E-04
   2.377650597843426E-04   2.401546383619524E-04   2.425682326035280E-04
   2.450060838705047E-04   2.474684359500411E-04   2.499555350793968E-04
   2.524676299705573E-04   2.550049718351052E-04   2.575678144093418E-04
   2.601564139796596E-04   2.627710294081731E-04   2.654119221586040E-04
   2.680793563224284E-04   2.707735986452850E-04   2.734949185536515E-04
   2.762435881817865E-04   2.790198823989438E-04   2.818240788368581E-04
   2.846564579175102E-04   2.875173028811685E-04   2.904068998147138E-04
   2.933255376802469E-04   2.962735083439868E-04   2.992511066054564E-04
   3.022586302269636E-04   3.052963799633763E-04   3.083646595921998E-04
   3.114637759439540E-04   3.145940389328565E-04   3.177557615878152E-04
   3.209492600837298E-04   3.241748537731113E-04   3.274328652180168E-04
   3.307236202223060E-04   3.340474478642209E-04   3.374046805292962E-04
   3.407956539435959E-04   3.442207072072876E-04   3.476801828285512E-04
   3.511744267578322E-04   3.547037884224353E-04   3.582686207614684E-04
   3.618692802611355E-04   3.655061269903875E-04   3.691795246369279E-04
   3.728898405435831E-04   3.766374457450349E-04   3.804227150049266E-04
   3.842460268533389E-04   3.881077636246430E-04   3.920083114957333E-04
   3.959480605246479E-04   3.999274046895729E-04   4.039467419282407E-04
   4.080064741777251E-04   4.121070074146334E-04   4.162487516957069E-04
   4.204321211988251E-04   4.246575342644247E-04   4.289254134373329E-04
   4.332361855090239E-04   4.375902815602971E-04   4.419881370043866E-04
   4.464301916305007E-04   4.509168896478043E-04   4.554486797298380E-04
   4.600260150593869E-04   4.646493533737977E-04   4.693191570107549E-04
   4.740358929545138E-04   4.788000328825998E-04   4.836120532129750E-04
   4.884724351516828E-04   4.933816647409676E-04   4.983402329078796E-04
   5.033486355133669E-04   5.084073734018641E-04   5.135169524513759E-04
   5.186778836240648E-04   5.238906830173497E-04   5.291558719155128E-04
   5.344739768418323E-04   5.398455296112323E-04   5.452710673834667E-04
   5.507511327168332E-04   5.562862736224321E-04   5.618770436189666E-04
   5.675240017880961E-04   5.732277128303420E-04   5.789887471215622E-04
   5.848076807699869E-04   5.906850956738306E-04   5.966215795794801E-04
   6.026177261402742E-04   6.086741349758651E-04   6.147914117321845E-04
   6.209701681420043E-04   6.272110220861153E-04   6.335145976551124E-04
   6.398815252118064E-04   6.463124414542571E-04   6.528079894794488E-04
   6.593688188475970E-04   6.659955856471063E-04   6.726889525601778E-04
   6.794495889290815E-04   6.862781708230879E-04   6.931753811060771E-04
   7.001419095048254E-04   7.071784526779773E-04   7.142857142857143E-04
   7.214644050601200E-04   7.287152428762537E-04   7.360389528239401E-04
   7.434362672802779E-04   7.509079259828748E-04   7.584546761038287E-04
   7.660772723244405E-04   7.737764769106848E-04   7.815530597894359E-04
   7.894077986254623E-04   7.973414788991932E-04   8.053548939852693E-04
   8.134488452318734E-04   8.216241420408773E-04   8.298816019487740E-04
   8.382220507084361E-04   8.466463223716896E-04   8.551552593727215E-04
   8.637497126123220E-04   8.724305415429779E-04   8.811986142548174E-04
   8.900548075624155E-04   8.990000070924844E-04   9.080351073724322E-04
   9.171610119198153E-04   9.263786333326940E-04   9.356888933808906E-04
   9.450927230981686E-04   9.545910628753382E-04   9.641848625542886E-04
   9.738750815229847E-04   9.836626888113983E-04   9.935486631884145E-04
   1.003533993259710E-03   1.013619677566612E-03   1.023806724685957E-03
   1.034096153330947E-03   1.044488992453018E-03   1.054986281344745E-03
   1.065589069743765E-03   1.076298417937753E-03   1.087115396870453E-03
   1.098041088248772E-03   1.109076584650954E-03   1.120222989635834E-03
   1.131481417853202E-03   1.142852995155258E-03   1.154338858709210E-03
   1.165940157110985E-03   1.177658050500092E-03   1.189493710675633E-03
   1.201448321213490E-03   1.213523077584678E-03   1.225719187274900E-03
   1.238037869905283E-03   1.250480357354359E-03   1.263047893881240E-03
   1.275741736250053E-03   1.288563153855612E-03   1.301513428850363E-03
   1.314593856272597E-03   1.327805744175960E-03   1.341150413760246E-03
   1.354629199503537E-03   1.368243449295641E-03   1.381994524572880E-03
   1.395883800454242E-03   1.409912665878891E-03   1.424082523745058E-03
   1.438394791050342E-03   1.452850899033395E-03   1.467452293317064E-03
   1.482200434052945E-03   1.497096796067404E-03   1.512142869009053E-03
   1.527340157497727E-03   1.542690181274939E-03   1.558194475355857E-03
   1.573854590182813E-03   1.589672091780335E-03   1.605648561911766E-03
   1.621785598237433E-03   1.638084814474416E-03   1.654547840557923E-03
   1.671176322804279E-03   1.687971924075567E-03   1.704936323945914E-03
   1.722071218869437E-03   1.739378322349911E-03   1.756859365112108E-03
   1.774516095274869E-03   1.792350278525927E-03   1.810363698298467E-03
   1.828558155949479E-03   1.846935470939892E-03   1.865497481016514E-03
   1.884246042395825E-03   1.903183029949584E-03   1.922310337392331E-03
   1.941629877470747E-03   1.961143582154940E-03   1.980853402831641E-03
   2.000761310499341E-03   2.020869295965402E-03   2.041179370045118E-03
   2.061693563762828E-03   2.082413928554998E-03   2.103342536475374E-03
   2.124481480402189E-03   2.145832874247452E-03   2.167398853168339E-03
   2.189181573780718E-03   2.211183214374796E-03   2.233405975132970E-03
   2.255852078349835E-03   2.278523768654418E-03   2.301423313234643E-03
   2.324553002064050E-03   2.347915148130797E-03   2.371512087668965E-03
   2.395346180392162E-03   2.419419809729526E-03   2.443735383064054E-03
   2.468295331973340E-03   2.493102112472744E-03   2.518158205260987E-03
   2.543466115968228E-03   2.569028375406628E-03   2.594847539823438E-03
   2.620926191156604E-03   2.647266937293001E-03   2.673872412329188E-03
   2.700745276834843E-03   2.727888218118811E-03   2.755303950497838E-03
   2.782995215568009E-03   2.810964782478912E-03   2.839215448210536E-03
   2.867750037853002E-03   2.896571404889055E-03   2.925682431479412E-03
   2.955086028750995E-03   2.984785137088033E-03   3.014782726426107E-03
   3.045081796549159E-03   3.075685377389436E-03   3.106596529330531E-03
   3.137818343513399E-03   3.169353942145476E-03   3.201206478812903E-03
   3.233379138795894E-03   3.265875139387255E-03   3.298697730214127E-03
   3.331850193562950E-03   3.365335844707675E-03   3.399158032241326E-03
   3.433320138410843E-03   3.467825579455310E-03   3.502677805947586E-03
   3.537880303139366E-03   3.573436591309704E-03   3.609350226117051E-03
   3.645624798954807E-03   3.682263937310489E-03   3.719271305128465E-03
   3.756650603176356E-03   3.794405569415119E-03   3.832539979372838E-03
   3.871057646522288E-03   3.909962422662289E-03   3.949258198302863E-03
   3.988948903054327E-03   4.029038506020231E-03   4.069531016194281E-03
   4.110430482861236E-03   4.151740996001848E-03   4.193466686701856E-03
   4.235611727565102E-03   4.278180333130799E-03   4.321176760294964E-03
   4.364605308736152E-03   4.408470321345397E-03   4.452776184660513E-03
   4.497527329304755E-03   4.542728230429879E-03   4.588383408163664E-03
   4.634497428061941E-03   4.681074901565109E-03   4.728120486459344E-03
   4.775638887342337E-03   4.823634856093777E-03   4.872113192350535E-03
   4.921078743986637E-03   4.970536407598049E-03   5.020491128992359E-03
   5.070947903683314E-03   5.121911777390441E-03   5.173387846543582E-03
   5.225381258792548E-03   5.277897213521893E-03   5.330940962370852E-03
   5.384517809758514E-03   5.438633113414264E-03   5.493292284913575E-03
   5.548500790219128E-03   5.604264150227466E-03   5.660587941321064E-03
   5.717477795925967E-03   5.774939403075043E-03   5.832978508976890E-03
   5.891600917590469E-03   5.950812491205501E-03   6.010619151028669E-03
   6.071026877775806E-03   6.132041712269926E-03   6.193669756045326E-03
   6.255917171957739E-03   6.318790184800628E-03   6.382295081927675E-03
   6.446438213881522E-03   6.511225995028795E-03   6.576664904201612E-03
   6.642761485345421E-03   6.709522348173417E-03   6.776954168827520E-03
   6.845063690545983E-03   6.913857724337741E-03   6.983343149663499E-03
   7.053526915123708E-03   7.124416039153376E-03   7.196017610723994E-03
   7.268338790052385E-03   7.341386809316749E-03   7.415168973379888E-03
   7.489692660519694E-03   7.564965323166983E-03   7.640994488650759E-03
   7.717787759950905E-03   7.795352816458557E-03   7.873697414744004E-03
   7.952829389332363E-03   8.032756653487032E-03   8.113487200001039E-03
   8.195029101996305E-03   8.277390513731001E-03   8.360579671414905E-03
   8.444604894033121E-03   8.529474584177936E-03   8.615197228889086E-03
   8.701781400502481E-03   8.789235757507436E-03   8.877569045412528E-03
   8.966790097620161E-03   9.056907836309920E-03   9.147931273330743E-03
   9.239869511102202E-03   9.332731743524688E-03   9.426527256898827E-03
   9.521265430854122E-03   9.616955739286918E-03   9.713607751307800E-03
   9.811231132198527E-03   9.909835644378513E-03   1.000943114838116E-02
   1.011002760383986E-02   1.021163507048400E-02   1.031426370914492E-02
   1.041792378277199E-02   1.052262565745898E-02   1.062837980348061E-02
   1.073519679633958E-02   1.084308731782422E-02   1.095206215707657E-02
   1.106213221167139E-02   1.117330848870584E-02   1.128560210590028E-02
   1.139902429271002E-02   1.151358639144824E-02   1.162929985842032E-02
   1.174617626506933E-02   1.186422729913336E-02   1.198346476581420E-02
   1.210390058895787E-02   1.222554681224705E-02   1.234841560040545E-02
   1.247251924041427E-02   1.259787014274096E-02   1.272448084258015E-02
   1.285236400110737E-02   1.298153240674505E-02   1.311199897644138E-02
   1.324377675696205E-02   1.337687892619494E-02   1.351131879446788E-02
   1.364710980587976E-02   1.378426553964484E-02   1.392279971145081E-02
   1.406272617483029E-02   1.420405892254623E-02   1.434681208799119E-02
   1.449099994660066E-02   1.463663691728067E-02   1.478373756384964E-02
   1.493231659649484E-02   1.508238887324330E-02   1.523396940144780E-02
   1.538707333928744E-02   1.554171599728363E-02   1.569791283983101E-02
   1.585567948674402E-02   1.601503171481881E-02   1.617598545941101E-02
   1.633855681602916E-02   1.650276204194442E-02   1.666861755781623E-02
   1.683613994933438E-02   1.700534596887762E-02   1.717625253718892E-02
   1.734887674506753E-02   1.752323585507812E-02   1.769934730327694E-02
   1.787722870095559E-02   1.805689783640207E-02   1.823837267667966E-02
   1.842167136942362E-02   1.860681224465596E-02   1.879381381661849E-02
   1.898269478562424E-02   1.917347403992756E-02   1.936617065761279E-02
   1.956080390850231E-02   1.975739325608340E-02   1.995595835945465E-02
   2.015651907529186E-02   2.035909545983377E-02   2.056370777088761E-02
   2.077037646985507E-02   2.097912222377818E-02   2.118996590740634E-02
   2.140292860528359E-02   2.161803161385720E-02   2.183529644360729E-02
   2.205474482119788E-02   2.227639869164960E-02   2.250028022053426E-02
   2.272641179619123E-02   2.295481603196655E-02   2.318551576847415E-02
   2.341853407587993E-02   2.365389425620880E-02   2.389161984567494E-02
   2.413173461703539E-02   2.437426258196738E-02   2.461922799346958E-02
   2.486665534828718E-02   2.511656938936188E-02   2.536899510830606E-02
   2.562395774790197E-02   2.588148280462605E-02   2.614159603119855E-02
   2.640432343915891E-02   2.666969130146693E-02   2.693772615512984E-02
   2.720845480385645E-02   2.748190432073724E-02   2.775810205095176E-02
   2.803707561450321E-02   2.831885290898042E-02   2.860346211234764E-02
   2.889093168576246E-02   2.918129037642165E-02   2.947456722043630E-02
   2.977079154573522E-02   3.006999297499779E-02   3.037220142861628E-02
   3.067744712768786E-02   3.098576059703686E-02   3.129717266826710E-02
   3.161171448284530E-02   3.192941749521490E-02   3.225031347594196E-02
   3.257443451489196E-02   3.290181302443891E-02   3.323248174270657E-02
   3.356647373684233E-02   3.390382240632393E-02   3.424456148629950E-02
   3.458872505096087E-02   3.493634751695136E-02   3.528746364680728E-02
   3.564210855243419E-02   3.600031769861821E-02   3.636212690657244E-02
   3.672757235751921E-02   3.709669059630821E-02   3.746951853507078E-02
   3.784609345691157E-02   3.822645301963656E-02   3.861063525951900E-02
   3.899867859510302E-02   3.939062183104557E-02   3.978650416199685E-02
   4.018636517651993E-02   4.059024486104934E-02   4.099818360389017E-02
   4.141022219925666E-02   4.182640185135170E-02   4.224676417848733E-02
   4.267135121724657E-02   4.310020542668710E-02   4.353336969258726E-02
   4.397088733173470E-02   4.441280209625775E-02   4.485915817800122E-02
   4.531000021294525E-02   4.576537328566903E-02   4.622532293385932E-02
   4.668989515286422E-02   4.715913640029278E-02   4.763309360066087E-02
   4.811181415008332E-02   4.859534592101409E-02   4.908373726703322E-02
   4.957703702768229E-02   5.007529453334847E-02   5.057855961019753E-02
   5.108688258515657E-02   5.160031429094675E-02   5.211890607116634E-02
   5.264270978542561E-02   5.317177781453249E-02   5.370616306573079E-02
   5.424591897799095E-02   5.479109952735400E-02   5.534175923232916E-02
   5.589795315934587E-02   5.645973692826038E-02   5.702716671791756E-02
   5.760029927176932E-02   5.817919190354867E-02   5.876390250300120E-02
   5.935448954167412E-02   5.995101207876344E-02   6.055352976701997E-02
   6.116210285871475E-02   6.177679221166391E-02   6.239765929531505E-02
   6.302476619689394E-02   6.365817562761335E-02   6.429795092894415E-02
   6.494415607894967E-02   6.559685569868338E-02   6.625611505865131E-02
   6.692200008533862E-02   6.759457736780297E-02   6.827391416433309E-02
   6.896007840917477E-02   6.965313871932430E-02   7.035316440139022E-02
   7.106022545852413E-02   7.177439259742094E-02   7.249573723538980E-02
   7.322433150749540E-02   7.396024827377222E-02   7.470356112651017E-02
   7.545434439761393E-02   7.621267316603630E-02   7.697862326528605E-02
   7.775227129101138E-02   7.853369460865972E-02   7.932297136121377E-02
   8.012018047700663E-02   8.092540167761422E-02   8.173871548582766E-02
   8.256020323370548E-02   8.338994707070707E-02   8.422802997190759E-02
   8.507453574629571E-02   8.592954904515399E-02   8.679315537052498E-02
   8.766544108376090E-02   8.854649341415996E-02   8.943640046768944E-02
   9.033525123579626E-02   9.124313560430629E-02   9.216014436241295E-02
   9.308636921175639E-02   9.402190277559309E-02   9.496683860805918E-02
   9.592127120352538E-02   9.688529600604659E-02   9.785900941890642E-02
   9.884250881425757E-02   9.983589254285918E-02   1.008392599439121E-01
   1.018527113549923E-01   1.028763481220855E-01   1.039102726097215E-01
   1.049545882112106E-01   1.060093993589833E-01   1.070748115350333E-01
   1.081509312814662E-01   1.092378662111535E-01   1.103357250184936E-01
   1.114446174902822E-01   1.125646545166907E-01   1.136959481023551E-01
   1.148386113775767E-01   1.159927586096351E-01   1.171585052142155E-01
   1.183359677669497E-01   1.195252640150744E-01   1.207265128892052E-01
   1.219398345152307E-01   1.231653502263245E-01   1.244031825750792E-01
   1.256534553457609E-01   1.269162935666888E-01   1.281918235227374E-01
   1.294801727679653E-01   1.307814701383702E-01   1.320958457647740E-01
   1.334234310858344E-01   1.347643588611900E-01   1.361187631847357E-01
   1.374867794980326E-01   1.388685446038520E-01   1.402641966798561E-01
   1.416738752924153E-01   1.430977214105656E-01   1.445358774201055E-01
   1.459884871378344E-01   1.474556958259345E-01   1.489376502064974E-01
   1.504344984761960E-01   1.519463903211047E-01   1.534734769316683E-01
   1.550159110178198E-01   1.565738468242533E-01   1.581474401458480E-01
   1.597368483432472E-01   1.613422303585952E-01   1.629637467314314E-01
   1.646015596147443E-01   1.662558327911874E-01   1.679267316894563E-01
   1.696144234008335E-01   1.713190766958967E-01   1.730408620413958E-01
   1.747799516173003E-01   1.765365193340169E-01   1.783107408497812E-01
   1.801027935882236E-01   1.819128567561106E-01   1.837411113612678E-01
   1.855877402306793E-01   1.874529280287707E-01   1.893368612758763E-01
   1.912397283668908E-01   1.931617195901089E-01   1.951030271462547E-01
   1.970638451677019E-01   1.990443697378859E-01   2.010447989109145E-01
   2.030653327313721E-01   2.051061732543246E-01   2.071675245655248E-01
   2.092495928018218E-01   2.113525861717741E-01   2.134767149764718E-01
   2.156221916305646E-01   2.177892306835063E-01   2.199780488410079E-01
   2.221888649867092E-01   2.244219002040673E-01   2.266773777984646E-01
   2.289555233195402E-01   2.312565645837451E-01   2.335807316971224E-01
   2.359282570783207E-01   2.382993754818343E-01   2.406943240214795E-01
   2.431133421941062E-01   2.455566719035475E-01   2.480245574848103E-01
   2.505172457285095E-01   2.530349859055470E-01   2.555780297920378E-01
   2.581466316944901E-01   2.607410484752349E-01   2.633615395781121E-01
   2.660083670544159E-01   2.686817955890994E-01   2.713820925272441E-01
   2.741095279007945E-01   2.768643744555598E-01   2.796469076784918E-01
   2.824574058252315E-01   2.852961499479357E-01   2.881634239233822E-01
   2.910595144813581E-01   2.939847112333325E-01   2.969393067014189E-01
   2.999235963476251E-01   3.029378786034033E-01   3.059824548994908E-01
   3.090576296960545E-01   3.121637105131367E-01   3.153010079614076E-01
   3.184698357732262E-01   3.216705108340147E-01   3.249033532139468E-01
   3.281686861999533E-01   3.314668363280547E-01   3.347981334160122E-01
   3.381629105963107E-01   3.415615043494720E-01   3.449942545377039E-01
   3.484615044388858E-01   3.519636007808977E-01   3.555008937762911E-01
   3.590737371573138E-01   3.626824882112814E-01   3.663275078163065E-01
   3.700091604773871E-01   3.737278143628576E-01   3.774838413412052E-01
   3.812776170182584E-01   3.851095207747454E-01   3.889799358042353E-01
   3.928892491514568E-01   3.968378517510022E-01   4.008261384664219E-01
   4.048545081297112E-01   4.089233635811935E-01   4.130331117098044E-01
   4.171841634937824E-01   4.213769340417637E-01   4.256118426342978E-01
   4.298893127657730E-01   4.342097721867672E-01   4.385736529468226E-01
   4.429813914376520E-01   4.474334284367776E-01   4.519302091516101E-01
   4.564721832639667E-01   4.610598049750444E-01   4.656935330508374E-01
   4.703738308680148E-01   4.751011664602585E-01   4.798760125650671E-01
   4.846988466710302E-01   4.895701510655784E-01   4.944904128832088E-01
   4.994601241542042E-01   5.044797818538331E-01   5.095498879520487E-01
   5.146709494636859E-01   5.198434784991632E-01   5.250679923156948E-01
   5.303450133690160E-01   5.356750693656308E-01   5.410586933155787E-01
   5.464964235857417E-01   5.519888039536786E-01   5.575363836620030E-01
   5.631397174733088E-01   5.687993657256467E-01   5.745158943885581E-01
   5.802898751196743E-01   5.861218853218779E-01   5.920125082010502E-01
   5.979623328243882E-01   6.039719541793119E-01   6.100419732329654E-01
   6.161729969923122E-01   6.223656385648373E-01   6.286205172198599E-01
   6.349382584504555E-01   6.413194940360131E-01   6.477648621054091E-01
   6.542750072008213E-01   6.608505803421847E-01   6.674922390922930E-01
   6.742006476225558E-01   6.809764767794166E-01   6.878204041514390E-01
   6.947331141370607E-01   7.017152980130424E-01   7.087676540035902E-01
   7.158908873501799E-01   7.230857103820825E-01   7.303528425875966E-01
   7.376930106859989E-01   7.451069487002171E-01   7.525953980302289E-01
   7.601591075272086E-01   7.677988335684088E-01   7.755153401328005E-01
   7.833093988774704E-01   7.911817892147882E-01   7.991332983903476E-01
   8.071647215616942E-01   8.152768618778350E-01   8.234705305595632E-01
   8.317465469805753E-01   8.401057387494096E-01   8.485489417922095E-01
   8.570770004363150E-01   8.656907674946974E-01   8.743911043512406E-01
   8.831788810468821E-01   8.920549763666118E-01   9.010202779273595E-01
   9.100756822667529E-01   9.192220949327716E-01   9.284604305743049E-01
   9.377916130326150E-01   9.472165754337242E-01   9.567362602817280E-01
   9.663516195530414E-01   9.760636147916055E-01   9.858732172050381E-01
   9.957814077617547E-01
    </PP_RAB>
  </PP_MESH>
  <PP_LOCAL size="1525">
  -1.347170272773491E+01  -1.347170272818201E+01  -1.347170272861375E+01
  -1.347170272903072E+01  -1.347170272943350E+01  -1.347170272982266E+01
  -1.347170273019876E+01  -1.347170273056234E+01  -1.347170273091393E+01
  -1.347170273125406E+01  -1.347170273158324E+01  -1.347170273190196E+01
  -1.347170273221073E+01  -1.347170273251002E+01  -1.347170273280030E+01
  -1.347170273308202E+01  -1.347170273335566E+01  -1.347170273362164E+01
  -1.347170273388040E+01  -1.347170273413235E+01  -1.347170273437793E+01
  -1.347170273461754E+01  -1.347170273485156E+01  -1.347170273508041E+01
  -1.347170273530445E+01  -1.347170273552406E+01  -1.347170273573961E+01
  -1.347170273595146E+01  -1.347170273615997E+01  -1.347170273636547E+01
  -1.347170273656832E+01  -1.347170273676883E+01  -1.347170273696735E+01
  -1.347170273716418E+01  -1.347170273735964E+01  -1.347170273757240E+01
  -1.347170273776463E+01  -1.347170273796071E+01  -1.347170273812763E+01
  -1.347170273825147E+01  -1.347170273842413E+01  -1.347170273863359E+01
  -1.347170273884731E+01  -1.347170273902942E+01  -1.347170273916883E+01
  -1.347170273935725E+01  -1.347170273958557E+01  -1.347170273981859E+01
  -1.347170273993413E+01  -1.347170274017415E+01  -1.347170274041902E+01
  -1.347170274062890E+01  -1.347170274088296E+01  -1.347170274105462E+01
  -1.347170274127648E+01  -1.347170274154360E+01  -1.347170274181612E+01
  -1.347170274205002E+01  -1.347170274224326E+01  -1.347170274252988E+01
  -1.347170274282230E+01  -1.347170274307476E+01  -1.347170274337821E+01
  -1.347170274368779E+01  -1.347170274386113E+01  -1.347170274418045E+01
  -1.347170274450620E+01  -1.347170274483856E+01  -1.347170274512622E+01
  -1.347170274547101E+01  -1.347170274572366E+01  -1.347170274602838E+01
  -1.347170274639148E+01  -1.347170274676193E+01  -1.347170274713982E+01
  -1.347170274736778E+01  -1.347170274775803E+01  -1.347170274815619E+01
  -1.347170274856240E+01  -1.347170274891740E+01  -1.347170274933908E+01
  -1.347170274976929E+01  -1.347170275009970E+01  -1.347170275054524E+01
  -1.347170275093735E+01  -1.347170275139978E+01  -1.347170275187152E+01
  -1.347170275235284E+01  -1.347170275272891E+01  -1.347170275316204E+01
  -1.347170275366937E+01  -1.347170275418700E+01  -1.347170275471506E+01
  -1.347170275518149E+01  -1.347170275572955E+01  -1.347170275617039E+01
  -1.347170275673855E+01  -1.347170275731817E+01  -1.347170275790950E+01
  -1.347170275843592E+01  -1.347170275904987E+01  -1.347170275967618E+01
  -1.347170276031516E+01  -1.347170276083748E+01  -1.347170276142008E+01
  -1.347170276209441E+01  -1.347170276278224E+01  -1.347170276348399E+01
  -1.347170276419988E+01  -1.347170276493026E+01  -1.347170276558373E+01
  -1.347170276620833E+01  -1.347170276697918E+01  -1.347170276776563E+01
  -1.347170276856796E+01  -1.347170276938640E+01  -1.347170277022140E+01
  -1.347170277097464E+01  -1.347170277184181E+01  -1.347170277258186E+01
  -1.347170277348147E+01  -1.347170277439916E+01  -1.347170277533540E+01
  -1.347170277629061E+01  -1.347170277715962E+01  -1.347170277815181E+01
  -1.347170277916404E+01  -1.347170278019660E+01  -1.347170278109114E+01
  -1.347170278216269E+01  -1.347170278325589E+01  -1.347170278425889E+01
  -1.347170278539434E+01  -1.347170278655280E+01  -1.347170278773470E+01
  -1.347170278894042E+01  -1.347170279017041E+01  -1.347170279142530E+01
  -1.347170279252860E+01  -1.347170279371041E+01  -1.347170279503662E+01
  -1.347170279638954E+01  -1.347170279776967E+01  -1.347170279917783E+01
  -1.347170280061442E+01  -1.347170280208011E+01  -1.347170280357540E+01
  -1.347170280510075E+01  -1.347170280650964E+01  -1.347170280791096E+01
  -1.347170280952381E+01  -1.347170281116913E+01  -1.347170281284767E+01
  -1.347170281456040E+01  -1.347170281630748E+01  -1.347170281808969E+01
  -1.347170281990798E+01  -1.347170282176310E+01  -1.347170282349256E+01
  -1.347170282542040E+01  -1.347170282738727E+01  -1.347170282939403E+01
  -1.347170283122954E+01  -1.347170283331381E+01  -1.347170283544006E+01
  -1.347170283760918E+01  -1.347170283982239E+01  -1.347170284208043E+01
  -1.347170284438395E+01  -1.347170284673426E+01  -1.347170284894592E+01
  -1.347170285138842E+01  -1.347170285388051E+01  -1.347170285642285E+01
  -1.347170285901641E+01  -1.347170286166224E+01  -1.347170286411571E+01
  -1.347170286686440E+01  -1.347170286966851E+01  -1.347170287252920E+01
  -1.347170287544791E+01  -1.347170287842562E+01  -1.347170288146312E+01
  -1.347170288434924E+01  -1.347170288750630E+01  -1.347170289072719E+01
  -1.347170289401341E+01  -1.347170289736588E+01  -1.347170290078626E+01
  -1.347170290427584E+01  -1.347170290783581E+01  -1.347170291118060E+01
  -1.347170291488043E+01  -1.347170291865532E+01  -1.347170292250610E+01
  -1.347170292643487E+01  -1.347170293044320E+01  -1.347170293428898E+01
  -1.347170293845617E+01  -1.347170294270705E+01  -1.347170294704371E+01
  -1.347170295146788E+01  -1.347170295598126E+01  -1.347170296058596E+01
  -1.347170296528369E+01  -1.347170297007558E+01  -1.347170297496414E+01
  -1.347170297995108E+01  -1.347170298503873E+01  -1.347170299022907E+01
  -1.347170299516803E+01  -1.347170300056275E+01  -1.347170300606667E+01
  -1.347170301168157E+01  -1.347170301741011E+01  -1.347170302296068E+01
  -1.347170302891752E+01  -1.347170303499541E+01  -1.347170304119598E+01
  -1.347170304752189E+01  -1.347170305397571E+01  -1.347170306056003E+01
  -1.347170306727735E+01  -1.347170307413047E+01  -1.347170308112223E+01
  -1.347170308825494E+01  -1.347170309553201E+01  -1.347170310295565E+01
  -1.347170311053006E+01  -1.347170311825747E+01  -1.347170312614093E+01
  -1.347170313418348E+01  -1.347170314238866E+01  -1.347170315029500E+01
  -1.347170315882545E+01  -1.347170316752763E+01  -1.347170317640540E+01
  -1.347170318509424E+01  -1.347170319432607E+01  -1.347170320374433E+01
  -1.347170321335325E+01  -1.347170322315622E+01  -1.347170323315668E+01
  -1.347170324335952E+01  -1.347170325376831E+01  -1.347170326438816E+01
  -1.347170327522290E+01  -1.347170328627673E+01  -1.347170329755317E+01
  -1.347170330905716E+01  -1.347170332079427E+01  -1.347170333276929E+01
  -1.347170334498662E+01  -1.347170335745019E+01  -1.347170337016435E+01
  -1.347170338313559E+01  -1.347170339636957E+01  -1.347170340987149E+01
  -1.347170342364552E+01  -1.347170343769781E+01  -1.347170345203310E+01
  -1.347170346665802E+01  -1.347170348092240E+01  -1.347170349613159E+01
  -1.347170351164788E+01  -1.347170352698933E+01  -1.347170354312733E+01
  -1.347170355959272E+01  -1.347170357639098E+01  -1.347170359352747E+01
  -1.347170361101021E+01  -1.347170362884589E+01  -1.347170364704306E+01
  -1.347170366560702E+01  -1.347170368454502E+01  -1.347170370386603E+01
  -1.347170372357760E+01  -1.347170374368790E+01  -1.347170376420293E+01
  -1.347170378513222E+01  -1.347170380648676E+01  -1.347170382827286E+01
  -1.347170385049931E+01  -1.347170387317429E+01  -1.347170389630889E+01
  -1.347170391991158E+01  -1.347170394398950E+01  -1.347170396855448E+01
  -1.347170399361438E+01  -1.347170401918057E+01  -1.347170404526238E+01
  -1.347170407187065E+01  -1.347170409901641E+01  -1.347170412670961E+01
  -1.347170415496387E+01  -1.347170418378992E+01  -1.347170421319841E+01
  -1.347170424319994E+01  -1.347170427380786E+01  -1.347170430503396E+01
  -1.347170433689053E+01  -1.347170436939142E+01  -1.347170440254996E+01
  -1.347170443527266E+01  -1.347170446976507E+01  -1.347170450422326E+01
  -1.347170454010502E+01  -1.347170457671067E+01  -1.347170461405170E+01
  -1.347170465214694E+01  -1.347170469101322E+01  -1.347170473066384E+01
  -1.347170477111986E+01  -1.347170481239335E+01  -1.347170485450131E+01
  -1.347170489745906E+01  -1.347170494128211E+01  -1.347170498599269E+01
  -1.347170503160587E+01  -1.347170507814372E+01  -1.347170512562152E+01
  -1.347170517405400E+01  -1.347170522346451E+01  -1.347170527386811E+01
  -1.347170532529211E+01  -1.347170537775829E+01  -1.347170543128478E+01
  -1.347170548589555E+01  -1.347170554160717E+01  -1.347170559844253E+01
  -1.347170565642597E+01  -1.347170571558121E+01  -1.347170577593334E+01
  -1.347170583750508E+01  -1.347170590032096E+01  -1.347170596440417E+01
  -1.347170602978276E+01  -1.347170609648169E+01  -1.347170616452679E+01
  -1.347170623394777E+01  -1.347170630476707E+01  -1.347170637701831E+01
  -1.347170645073207E+01  -1.347170652593523E+01  -1.347170660266120E+01
  -1.347170668093642E+01  -1.347170676079060E+01  -1.347170684225754E+01
  -1.347170692537000E+01  -1.347170701015997E+01  -1.347170709666235E+01
  -1.347170718491152E+01  -1.347170727494317E+01  -1.347170736679741E+01
  -1.347170746050882E+01  -1.347170755611351E+01  -1.347170765364593E+01
  -1.347170775314442E+01  -1.347170785464921E+01  -1.347170795820677E+01
  -1.347170806386014E+01  -1.347170817164960E+01  -1.347170828162014E+01
  -1.347170839381025E+01  -1.347170850826604E+01  -1.347170862503333E+01
  -1.347170874415936E+01  -1.347170886569099E+01  -1.347170898967488E+01
  -1.347170911616435E+01  -1.347170924520632E+01  -1.347170937685415E+01
  -1.347170951116239E+01  -1.347170964521972E+01  -1.347170978348227E+01
  -1.347170992600901E+01  -1.347171007141967E+01  -1.347171021977192E+01
  -1.347171037111502E+01  -1.347171052551125E+01  -1.347171068302874E+01
  -1.347171084372070E+01  -1.347171100766006E+01  -1.347171117491745E+01
  -1.347171134554997E+01  -1.347171151962527E+01  -1.347171169722944E+01
  -1.347171187842675E+01  -1.347171206327220E+01  -1.347171225184260E+01
  -1.347171244422990E+01  -1.347171264050789E+01  -1.347171284074044E+01
  -1.347171304502136E+01  -1.347171325343354E+01  -1.347171346605471E+01
  -1.347171368297561E+01  -1.347171390428022E+01  -1.347171413004830E+01
  -1.347171436036496E+01  -1.347171459533693E+01  -1.347171483507486E+01
  -1.347171507965569E+01  -1.347171532916376E+01  -1.347171558370327E+01
  -1.347171584339374E+01  -1.347171610834420E+01  -1.347171637863290E+01
  -1.347171665436988E+01  -1.347171693567937E+01  -1.347171722267238E+01
  -1.347171751546564E+01  -1.347171781417820E+01  -1.347171811892555E+01
  -1.347171842983850E+01  -1.347171874702949E+01  -1.347171907060696E+01
  -1.347171940072702E+01  -1.347171973753338E+01  -1.347172008114591E+01
  -1.347172043167939E+01  -1.347172078926918E+01  -1.347172115410036E+01
  -1.347172152633214E+01  -1.347172190606838E+01  -1.347172229345346E+01
  -1.347172268867462E+01  -1.347172309188917E+01  -1.347172350324031E+01
  -1.347172392289240E+01  -1.347172435101802E+01  -1.347172478780007E+01
  -1.347172523341712E+01  -1.347172568802794E+01  -1.347172615181189E+01
  -1.347172662497221E+01  -1.347172710769579E+01  -1.347172760016238E+01
  -1.347172810256259E+01  -1.347172861511170E+01  -1.347172913803323E+01
  -1.347172967151155E+01  -1.347173021575170E+01  -1.347173077099368E+01
  -1.347173133746016E+01  -1.347173191536298E+01  -1.347173250492894E+01
  -1.347173310640199E+01  -1.347173372002097E+01  -1.347173434604064E+01
  -1.347173498471354E+01  -1.347173563628180E+01  -1.347173630100906E+01
  -1.347173697915560E+01  -1.347173767099212E+01  -1.347173837681116E+01
  -1.347173909689891E+01  -1.347173983152188E+01  -1.347174058096804E+01
  -1.347174134555211E+01  -1.347174212558897E+01  -1.347174292137408E+01
  -1.347174373322191E+01  -1.347174456148077E+01  -1.347174540646963E+01
  -1.347174626852176E+01  -1.347174714797632E+01  -1.347174804517806E+01
  -1.347174896052197E+01  -1.347174989436808E+01  -1.347175084704963E+01
  -1.347175181896862E+01  -1.347175281052294E+01  -1.347175382209384E+01
  -1.347175485410742E+01  -1.347175590696530E+01  -1.347175698106986E+01
  -1.347175807687106E+01  -1.347175919480343E+01  -1.347176033530740E+01
  -1.347176149884815E+01  -1.347176268589163E+01  -1.347176389689567E+01
  -1.347176513233847E+01  -1.347176639275353E+01  -1.347176767863356E+01
  -1.347176899045663E+01  -1.347177032876618E+01  -1.347177169410613E+01
  -1.347177308702678E+01  -1.347177450807707E+01  -1.347177595780509E+01
  -1.347177743680326E+01  -1.347177894567335E+01  -1.347178048500581E+01
  -1.347178205542385E+01  -1.347178365756566E+01  -1.347178529205778E+01
  -1.347178695954706E+01  -1.347178866069127E+01  -1.347179039617261E+01
  -1.347179216670762E+01  -1.347179397299850E+01  -1.347179581575481E+01
  -1.347179769571431E+01  -1.347179961363002E+01  -1.347180157026941E+01
  -1.347180356641283E+01  -1.347180560285862E+01  -1.347180768041072E+01
  -1.347180979990151E+01  -1.347181196218773E+01  -1.347181416812972E+01
  -1.347181641859460E+01  -1.347181871449720E+01  -1.347182105676772E+01
  -1.347182344630441E+01  -1.347182588405239E+01  -1.347182837102696E+01
  -1.347183090822459E+01  -1.347183349661257E+01  -1.347183613724374E+01
  -1.347183883120277E+01  -1.347184157952495E+01  -1.347184438330846E+01
  -1.347184724370490E+01  -1.347185016182934E+01  -1.347185313884121E+01
  -1.347185617593655E+01  -1.347185927431909E+01  -1.347186243524943E+01
  -1.347186565998205E+01  -1.347186894977684E+01  -1.347187230596699E+01
  -1.347187572990452E+01  -1.347187922292845E+01  -1.347188278642871E+01
  -1.347188642184934E+01  -1.347189013062623E+01  -1.347189391423004E+01
  -1.347189777419266E+01  -1.347190171204112E+01  -1.347190572932813E+01
  -1.347190982766882E+01  -1.347191400870244E+01  -1.347191827408848E+01
  -1.347192262553035E+01  -1.347192706477688E+01  -1.347193159358529E+01
  -1.347193621373414E+01  -1.347194092707134E+01  -1.347194573549437E+01
  -1.347195064092474E+01  -1.347195564530248E+01  -1.347196075061046E+01
  -1.347196595889465E+01  -1.347197127223660E+01  -1.347197669273053E+01
  -1.347198222252766E+01  -1.347198786385155E+01  -1.347199361895366E+01
  -1.347199949011342E+01  -1.347200547966394E+01  -1.347201158997282E+01
  -1.347201782348288E+01  -1.347202418270802E+01  -1.347203067013719E+01
  -1.347203728833877E+01  -1.347204403997887E+01  -1.347205092773391E+01
  -1.347205795434211E+01  -1.347206512258469E+01  -1.347207243530035E+01
  -1.347207989542300E+01  -1.347208750592169E+01  -1.347209526979638E+01
  -1.347210319012292E+01  -1.347211127006456E+01  -1.347211951283847E+01
  -1.347212792170645E+01  -1.347213650000294E+01  -1.347214525113113E+01
  -1.347215417856978E+01  -1.347216328586904E+01  -1.347217257662722E+01
  -1.347218205453118E+01  -1.347219172334965E+01  -1.347220158690928E+01
  -1.347221164912257E+01  -1.347222191398433E+01  -1.347223238555231E+01
  -1.347224306797104E+01  -1.347225396548925E+01  -1.347226508242459E+01
  -1.347227642316627E+01  -1.347228799220810E+01  -1.347229979413039E+01
  -1.347231183359470E+01  -1.347232411536805E+01  -1.347233664431284E+01
  -1.347234942539228E+01  -1.347236246365996E+01  -1.347237576426148E+01
  -1.347238933244607E+01  -1.347240317357203E+01  -1.347241729313122E+01
  -1.347243169669588E+01  -1.347244638992746E+01  -1.347246137863372E+01
  -1.347247666873686E+01  -1.347249226626862E+01  -1.347250817738412E+01
  -1.347252440835817E+01  -1.347254096558640E+01  -1.347255785558888E+01
  -1.347257508501863E+01  -1.347259266065506E+01  -1.347261058941107E+01
  -1.347262887836646E+01  -1.347264753471047E+01  -1.347266656575346E+01
  -1.347268597899064E+01  -1.347270578206174E+01  -1.347272598274014E+01
  -1.347274658895830E+01  -1.347276760881207E+01  -1.347278905054101E+01
  -1.347281092255849E+01  -1.347283323344233E+01  -1.347285599192589E+01
  -1.347287920693335E+01  -1.347290288756255E+01  -1.347292704308218E+01
  -1.347295168293755E+01  -1.347297681675838E+01  -1.347300245437280E+01
  -1.347302860580591E+01  -1.347305528127348E+01  -1.347308249118454E+01
  -1.347311024614097E+01  -1.347313855696561E+01  -1.347316743470717E+01
  -1.347319689061729E+01  -1.347322693616627E+01  -1.347325758303311E+01
  -1.347328884312749E+01  -1.347332072859909E+01  -1.347335325183856E+01
  -1.347338642548957E+01  -1.347342026242191E+01  -1.347345477573719E+01
  -1.347348997881064E+01  -1.347352588529013E+01  -1.347356250905168E+01
  -1.347359986423800E+01  -1.347363796530562E+01  -1.347367682698648E+01
  -1.347371646426533E+01  -1.347375689241356E+01  -1.347379812701488E+01
  -1.347384018394261E+01  -1.347388307937074E+01  -1.347392682979300E+01
  -1.347397145201359E+01  -1.347401696316113E+01  -1.347406338068382E+01
  -1.347411072236432E+01  -1.347415900631141E+01  -1.347420825098725E+01
  -1.347425847522855E+01  -1.347430969818481E+01  -1.347436193937441E+01
  -1.347441521872896E+01  -1.347446955651867E+01  -1.347452497338280E+01
  -1.347458149038184E+01  -1.347463912895480E+01  -1.347469791092421E+01
  -1.347475785854164E+01  -1.347481899448734E+01  -1.347488134185206E+01
  -1.347494492413693E+01  -1.347500976528565E+01  -1.347507588970308E+01
  -1.347514332224520E+01  -1.347521208822200E+01  -1.347528221338676E+01
  -1.347535372397612E+01  -1.347542664673440E+01  -1.347550100888723E+01
  -1.347557683813689E+01  -1.347565416269289E+01  -1.347573301129514E+01
  -1.347581341319261E+01  -1.347589539816104E+01  -1.347597899652282E+01
  -1.347606423914028E+01  -1.347615115744017E+01  -1.347623978339788E+01
  -1.347633014955821E+01  -1.347642228907099E+01  -1.347651623563796E+01
  -1.347661202357358E+01  -1.347670968782109E+01  -1.347680926388276E+01
  -1.347691078792105E+01  -1.347701429677136E+01  -1.347711982784037E+01
  -1.347722741917718E+01  -1.347733710954769E+01  -1.347744893837885E+01
  -1.347756294573076E+01  -1.347767917236029E+01  -1.347779765975844E+01
  -1.347791845008556E+01  -1.347804158619711E+01  -1.347816711171715E+01
  -1.347829507096339E+01  -1.347842550900272E+01  -1.347855847168557E+01
  -1.347869400555062E+01  -1.347883215790655E+01  -1.347897297689394E+01
  -1.347911651142574E+01  -1.347926281116684E+01  -1.347941192657780E+01
  -1.347956390895393E+01  -1.347971881040998E+01  -1.347987668385966E+01
  -1.348003758305175E+01  -1.348020156258898E+01  -1.348036867790994E+01
  -1.348053898528685E+01  -1.348071254185822E+01  -1.348088940564713E+01
  -1.348106963554079E+01  -1.348125329128940E+01  -1.348144043352503E+01
  -1.348163112379521E+01  -1.348182542453256E+01  -1.348202339903022E+01
  -1.348222511152057E+01  -1.348243062715140E+01  -1.348264001194837E+01
  -1.348285333284972E+01  -1.348307065772947E+01  -1.348329205538648E+01
  -1.348351759551473E+01  -1.348374734871283E+01  -1.348398138649937E+01
  -1.348421978134121E+01  -1.348446260662967E+01  -1.348470993663029E+01
  -1.348496184651705E+01  -1.348521841239892E+01  -1.348547971127751E+01
  -1.348574582103624E+01  -1.348601682044942E+01  -1.348629278919546E+01
  -1.348657380782488E+01  -1.348685995772339E+01  -1.348715132113976E+01
  -1.348744798118139E+01  -1.348775002176606E+01  -1.348805752762073E+01
  -1.348837058427825E+01  -1.348868927804363E+01  -1.348901369599052E+01
  -1.348934392592782E+01  -1.348968005637166E+01  -1.349002217652544E+01
  -1.349037037626892E+01  -1.349072474614409E+01  -1.349108537727285E+01
  -1.349145236134106E+01  -1.349182579059178E+01  -1.349220575779121E+01
  -1.349259235620037E+01  -1.349298567945248E+01  -1.349338582155676E+01
  -1.349379287691552E+01  -1.349420694021062E+01  -1.349462810635722E+01
  -1.349505647046306E+01  -1.349549212776005E+01  -1.349593517355208E+01
  -1.349638570314940E+01  -1.349684381179747E+01  -1.349730959465350E+01
  -1.349778314667509E+01  -1.349826456248661E+01  -1.349875393638301E+01
  -1.349925136225675E+01  -1.349975693343489E+01  -1.350027074262634E+01
  -1.350079288185732E+01  -1.350132344231244E+01  -1.350186251425642E+01
  -1.350241018694116E+01  -1.350296654846450E+01  -1.350353168566124E+01
  -1.350410568397998E+01  -1.350468862736607E+01  -1.350528059813118E+01
  -1.350588167677388E+01  -1.350649194184678E+01  -1.350711146985531E+01
  -1.350774033505841E+01  -1.350837860929622E+01  -1.350902636186230E+01
  -1.350968365929817E+01  -1.351035056522502E+01  -1.351102714017080E+01
  -1.351171344132358E+01  -1.351240952236602E+01  -1.351311543330910E+01
  -1.351383122024006E+01  -1.351455692508030E+01  -1.351529258536330E+01
  -1.351603823402719E+01  -1.351679389918988E+01  -1.351755960384389E+01
  -1.351833536561309E+01  -1.351912119653358E+01  -1.351991710272327E+01
  -1.352072308411533E+01  -1.352153913420906E+01  -1.352236523972831E+01
  -1.352320138034820E+01  -1.352404752837572E+01  -1.352490364838706E+01
  -1.352576969697030E+01  -1.352664562235775E+01  -1.352753136406788E+01
  -1.352842685259373E+01  -1.352933200901515E+01  -1.353024674465360E+01
  -1.353117096066079E+01  -1.353210454763894E+01  -1.353304738533094E+01
  -1.353399934215649E+01  -1.353496027479644E+01  -1.353593002782040E+01
  -1.353690843326301E+01  -1.353789531021560E+01  -1.353889046437106E+01
  -1.353989368759762E+01  -1.354090475750074E+01  -1.354192343697287E+01
  -1.354294947377017E+01  -1.354398260004509E+01  -1.354502253186890E+01
  -1.354606896877144E+01  -1.354712159332213E+01  -1.354818007063975E+01
  -1.354924404787539E+01  -1.355031315380176E+01  -1.355138699833240E+01
  -1.355246517202833E+01  -1.355354724564454E+01  -1.355463276965820E+01
  -1.355572127380016E+01  -1.355681226656093E+01  -1.355790523475016E+01
  -1.355899964306136E+01  -1.356009493358702E+01  -1.356119052536075E+01
  -1.356228581392441E+01  -1.356338017089016E+01  -1.356447294352032E+01
  -1.356556345431225E+01  -1.356665100055319E+01  -1.356773485393599E+01
  -1.356881426017505E+01  -1.356988843860825E+01  -1.357095658185975E+01
  -1.357201785547923E+01  -1.357307139757087E+01  -1.357411631848638E+01
  -1.357515170051923E+01  -1.357617659759737E+01  -1.357719003504099E+01
  -1.357819100926550E+01  -1.357917848752349E+01  -1.358015140772434E+01
  -1.358110867819396E+01  -1.358204917749667E+01  -1.358297175426642E+01
  -1.358387522702673E+01  -1.358475838409445E+01  -1.358561998345217E+01
  -1.358645875263417E+01  -1.358727338866997E+01  -1.358806255799497E+01
  -1.358882489641300E+01  -1.358955900907995E+01  -1.359026347047065E+01
  -1.359093682438748E+01  -1.359157758395105E+01  -1.359218423162238E+01
  -1.359275521925237E+01  -1.359328896810548E+01  -1.359378386888804E+01
  -1.359423828180031E+01  -1.359465053658117E+01  -1.359501893253508E+01
  -1.359534173858828E+01  -1.359561719330935E+01  -1.359584350491066E+01
  -1.359601885125799E+01  -1.359614137984795E+01  -1.359620920777920E+01
  -1.359622042166205E+01  -1.359617307751871E+01  -1.359606520067299E+01
  -1.359589478555407E+01  -1.359565979548748E+01  -1.359535816241316E+01
  -1.359498778654219E+01  -1.359454653600915E+01  -1.359403224640009E+01
  -1.359344272020579E+01  -1.359277572625402E+01  -1.359202899901702E+01
  -1.359120023782833E+01  -1.359028710601768E+01  -1.358928722995077E+01
  -1.358819819794472E+01  -1.358701755909467E+01  -1.358574282198172E+01
  -1.358437145321011E+01  -1.358290087589046E+01  -1.358132846795127E+01
  -1.357965156029142E+01  -1.357786743482748E+01  -1.357597332236277E+01
  -1.357396640032119E+01  -1.357184379031448E+01  -1.356960255553560E+01
  -1.356723969801416E+01  -1.356475215568396E+01  -1.356213679926735E+01
  -1.355939042899959E+01  -1.355650977116132E+01  -1.355349147445447E+01
  -1.355033210617051E+01  -1.354702814816206E+01  -1.354357599268013E+01
  -1.353997193797849E+01  -1.353621218374193E+01  -1.353229282635294E+01
  -1.352820985394350E+01  -1.352395914128055E+01  -1.351953644447127E+01
  -1.351493739547865E+01  -1.351015749647019E+01  -1.350519211400243E+01
  -1.350003647301958E+01  -1.349468565069380E+01  -1.348913457011636E+01
  -1.348337799382399E+01  -1.347741051718678E+01  -1.347122656164937E+01
  -1.346482036783331E+01  -1.345818598853556E+01  -1.345131728158897E+01
  -1.344420790260854E+01  -1.343685129766044E+01  -1.342924069582421E+01
  -1.342136910168244E+01  -1.341322928773447E+01  -1.340481378674862E+01
  -1.339611488409251E+01  -1.338712461000636E+01  -1.337783473185864E+01
  -1.336823674640953E+01  -1.335832187207053E+01  -1.334808104119089E+01
  -1.333750489239430E+01  -1.332658376295870E+01  -1.331530768127033E+01
  -1.330366635939172E+01  -1.329164918572449E+01  -1.327924521780132E+01
  -1.326644317524740E+01  -1.325323143291797E+01  -1.323959801423686E+01
  -1.322553058475146E+01  -1.321101644594953E+01  -1.319604252937041E+01
  -1.318059539100972E+01  -1.316466120607021E+01  -1.314822576409737E+01
  -1.313127446451687E+01  -1.311379231262500E+01  -1.309576391605749E+01
  -1.307717348178690E+01  -1.305800481369900E+01  -1.303824131076914E+01
  -1.301786596590815E+01  -1.299686136552364E+01  -1.297520968983716E+01
  -1.295289271402530E+01  -1.292989181024810E+01  -1.290618795060627E+01
  -1.288176171109933E+01  -1.285659327666926E+01  -1.283066244737777E+01
  -1.280394864579603E+01  -1.277643092568962E+01  -1.274808798207596E+01
  -1.271889816273814E+01  -1.268883948127397E+01  -1.265788963178196E+01
  -1.262602600527978E+01  -1.259322570793577E+01  -1.255946558122520E+01
  -1.252472222411159E+01  -1.248897201736013E+01  -1.245219115009564E+01
  -1.241435564870277E+01  -1.237544140819566E+01  -1.233542422617390E+01
  -1.229427983946954E+01  -1.225198396361724E+01  -1.220851233526198E+01
  -1.216384075762104E+01  -1.211794514912925E+01  -1.207080159538593E+01
  -1.202238640451341E+01  -1.197267616604604E+01  -1.192164781347452E+01
  -1.186927869053737E+01  -1.181554662136733E+01  -1.176042998459672E+01
  -1.170390779149916E+01  -1.164595976825038E+01  -1.158656644237399E+01
  -1.152570923342549E+01  -1.146337054795429E+01  -1.139953387875205E+01
  -1.133418390839292E+01  -1.126730661704122E+01  -1.119888939446241E+01
  -1.112892115615922E+01  -1.105739246350606E+01  -1.098429564772149E+01
  -1.090962493747720E+01  -1.083337658987311E+01  -1.075554902446870E+01
  -1.067614295999166E+01  -1.059516155326877E+01  -1.051261053984646E+01
  -1.042849837567875E+01  -1.034283637915979E+01  -1.025563887267045E+01
  -1.016692332269336E+01  -1.007671047740408E+01  -9.985024500515969E+00
  -9.891893099999992E+00  -9.797347650125477E+00  -9.701423305103816E+00
  -9.604159102424045E+00  -9.505598053784666E+00  -9.405787221341861E+00
  -9.304777776802664E+00  -9.202625040727668E+00  -9.099388499267206E+00
  -8.995131795447366E+00  -8.889922692075585E+00  -8.783833003363693E+00
  -8.676938492499822E+00  -8.569318732665646E+00  -8.461056929420568E+00
  -8.352239703002486E+00  -8.242956829960512E+00  -8.133300944665278E+00
  -8.023367202670929E+00  -7.913252909651416E+00  -7.803057121691412E+00
  -7.692880225057605E+00  -7.582823506146433E+00  -7.472988724987793E+00
  -7.363477708324110E+00  -7.254391980650923E+00  -7.145832453414265E+00
  -7.037899193473861E+00  -6.930691291571335E+00  -6.824306849501130E+00
  -6.718843100610183E+00  -6.614396671882584E+00  -6.511063987093801E+00
  -6.408941799468542E+00  -6.308127829361879E+00  -6.208721468453842E+00
  -6.110824497877653E+00  -6.014541754942634E+00  -5.919981673178340E+00
  -5.827256614823806E+00  -5.736482914900323E+00  -5.647780562490031E+00
  -5.561272458016036E+00  -5.477083204656800E+00  -5.395337416244975E+00
  -5.316157551168708E+00  -5.239661309567546E+00  -5.165958657049719E+00
  -5.095148560051430E+00  -5.027315534165349E+00  -4.962526116420056E+00
  -4.900825375603603E+00  -4.842233572131609E+00  -4.786743072172941E+00
  -4.734315611693599E+00  -4.684879996834247E+00  -4.638330319566988E+00
  -4.594524763532978E+00  -4.553285075574049E+00  -4.514396784498995E+00
  -4.477610260399917E+00  -4.442642725341406E+00  -4.409181349232925E+00
  -4.376887592788179E+00  -4.345402992293387E+00  -4.314356618131880E+00
  -4.283374480479530E+00  -4.252091201306639E+00  -4.220164322027662E+00
  -4.187291671289332E+00  -4.153232278148515E+00  -4.117831383131540E+00
  -4.081050174391763E+00  -4.043000959458872E+00  -4.003988419640518E+00
  -3.964555704314738E+00  -3.925353861552312E+00  -3.886535002100193E+00
  -3.848095706436629E+00  -3.810030981690895E+00  -3.772336078989117E+00
  -3.735006576779676E+00  -3.698038337132825E+00  -3.661427466248997E+00
  -3.625170279116605E+00  -3.589263268165901E+00  -3.553703075699790E+00
  -3.518486469839137E+00  -3.483610323697757E+00  -3.449071597492614E+00
  -3.414867323294291E+00  -3.380994592132277E+00  -3.347450543183126E+00
  -3.314232354787469E+00  -3.281337237060326E+00  -3.248762425881027E+00
  -3.216505178068603E+00  -3.184562767567855E+00  -3.152932482493302E+00
  -3.121611622893571E+00  -3.090597499116698E+00  -3.059887430672067E+00
  -3.029478745548139E+00  -2.999368779640540E+00  -2.969554876709370E+00
  -2.940034388723192E+00  -2.910804675736805E+00  -2.881863106217783E+00
  -2.853207057680854E+00  -2.824833917114002E+00  -2.796741081518591E+00
  -2.768925958473718E+00  -2.741385966711983E+00  -2.714118536696062E+00
  -2.687121111189399E+00  -2.660391145815725E+00  -2.633926109603604E+00
  -2.607723485513910E+00  -2.581780770948764E+00  -2.556095478241373E+00
  -2.530665135125731E+00  -2.505487285172999E+00  -2.480559488271016E+00
  -2.455879321005842E+00  -2.431444376989068E+00  -2.407252267302087E+00
  -2.383300620847216E+00  -2.359587084643628E+00  -2.336109324140097E+00
  -2.312865023494934E+00  -2.289851885831413E+00  -2.267067633468095E+00
  -2.244510008123243E+00  -2.222176771092850E+00  -2.200065703401963E+00
  -2.178174605929158E+00  -2.156501299504273E+00  -2.135043624979792E+00
  -2.113799443276350E+00  -2.092766635403246E+00  -2.071943102454938E+00
  -2.051326765584701E+00  -2.030915565956714E+00  -2.010707464678081E+00
  -1.990700442712255E+00  -1.970892500775551E+00  -1.951281659218277E+00
  -1.931865957892124E+00  -1.912643456005412E+00  -1.893612231967807E+00
  -1.874770383225993E+00  -1.856116026091654E+00  -1.837647295563253E+00
  -1.819362345142769E+00  -1.801259346648618E+00  -1.783336490025858E+00
  -1.765591983154642E+00  -1.748024051657774E+00  -1.730630938708321E+00
  -1.713410904837972E+00  -1.696362227746842E+00  -1.679483202115357E+00
  -1.662772139418942E+00  -1.646227367746055E+00  -1.629847231620311E+00
  -1.613630091827295E+00  -1.597574325246824E+00  -1.581678324691508E+00
  -1.565940498752505E+00  -1.550359271653449E+00  -1.534933083113588E+00
  -1.519660388221252E+00  -1.504539657318756E+00  -1.489569375899618E+00
  -1.474748044518809E+00  -1.460074178716327E+00  -1.445546308953668E+00
  -1.431162980561929E+00  -1.416922753699140E+00  -1.402824203313074E+00
  -1.388865919104201E+00  -1.375046505481947E+00  -1.361364581505924E+00
  -1.347818780802758E+00  -1.334407751448610E+00  -1.321130155808102E+00
  -1.307984670321806E+00  -1.294969985237376E+00  -1.282084804283695E+00
  -1.269327844292667E+00  -1.256697834779092E+00  -1.244193517495085E+00
  -1.231813645980758E+00  -1.219556985136153E+00  -1.207422310840742E+00
  -1.195408409645310E+00  -1.183514078555971E+00  -1.171738124921416E+00
  -1.160079366440869E+00  -1.148536631252724E+00  -1.137108758115517E+00
  -1.125794596688898E+00  -1.114593007805080E+00  -1.103502863751358E+00
  -1.092523048551294E+00  -1.081652458177594E+00  -1.070890000699165E+00
  -1.060234596346087E+00  -1.049685177488270E+00  -1.039240688530841E+00
  -1.028900085735168E+00  -1.018662336978802E+00  -1.008526421470261E+00
  -9.984913294352518E-01  -9.885560617903864E-01  -9.787196298186469E-01
  -9.689810548582160E-01  -9.593393680133339E-01  -9.497936098931251E-01
  -9.403428303812917E-01  -9.309860884374068E-01  -9.217224519284923E-01
  -9.125509974883681E-01  -9.034708104012974E-01  -8.944809845060071E-01
  -8.855806221161040E-01  -8.767688339534896E-01  -8.680447391375905E-01
  -8.594074650042810E-01  -8.508561470728333E-01  -8.423899292427921E-01
  -8.340079635623138E-01  -8.257094101062977E-01  -8.174934370534452E-01
  -8.093592206061649E-01  -8.013059449418118E-01  -7.933328021627586E-01
  -7.854389922451791E-01  -7.776237229867212E-01  -7.698862099532101E-01
  -7.622256764246116E-01  -7.546413533403650E-01  -7.471324792441838E-01
  -7.396983002284258E-01  -7.323380698779725E-01  -7.250510492136323E-01
  -7.178365066349572E-01  -7.106937178623816E-01  -7.036219658785099E-01
  -6.966205408684225E-01  -6.896887401587999E-01  -6.828258681557136E-01
  -6.760312362809218E-01  -6.693041629065141E-01  -6.626439732878137E-01
  -6.560499994944256E-01  -6.495215803393949E-01  -6.430580613064436E-01
  -6.366587944753328E-01  -6.303231384453825E-01  -6.240504582572527E-01
  -6.178401253131031E-01  -6.116915172952803E-01  -6.056040180836648E-01
  -5.995770176718792E-01  -5.936099120825047E-01  -5.877021032814734E-01
  -5.818529990917926E-01  -5.760620131067257E-01  -5.703285646025442E-01
  -5.646520784509237E-01  -5.590319850310215E-01  -5.534677201412607E-01
  -5.479587249107661E-01  -5.425044457103936E-01  -5.371043340632315E-01
  -5.317578465544155E-01  -5.264644447400557E-01  -5.212235950550356E-01
  -5.160347687193985E-01  -5.108974416429745E-01  -5.058110943279036E-01
  -5.007752117686125E-01  -4.957892833487939E-01  -4.908528027348757E-01
  -4.859652677654148E-01  -4.811261803358047E-01  -4.763350462776270E-01
  -4.715913752318925E-01  -4.668946805153961E-01  -4.622444789792901E-01
  -4.576402908588542E-01  -4.530816396139077E-01  -4.485680517566558E-01
  -4.440990566708959E-01  -4.396741864149818E-01  -4.352929755717241E-01
  -4.309549607556443E-01  -4.266596807758019E-01  -4.224066760901408E-01
  -4.181954885839367E-01  -4.140256612556330E-01  -4.098967378746222E-01
  -4.058082626085835E-01  -4.017597796178078E-01  -3.977508326134082E-01
  -3.937809643761793E-01  -3.898497162326526E-01  -3.859566274847576E-01
  -3.821012347893439E-01  -3.782830714836813E-01  -3.745016668528626E-01
  -3.707565453348013E-01  -3.670472256579925E-01  -3.633740402057026E-01
  -3.597363421660802E-01  -3.561360057772939E-01  -3.525727755968903E-01
  -3.490471796176140E-01  -3.455587216998126E-01  -3.421069138954900E-01
  -3.386912764507797E-01  -3.353113377924748E-01  -3.319666344994477E-01
  -3.286567112598129E-01  -3.253811208146467E-01  -3.221394238890594E-01
  -3.189311891113602E-01  -3.157559929210272E-01  -3.126134194661090E-01
  -3.095030604907288E-01  -3.064245152128544E-01  -3.033773902299470E-01
  -3.003612992320177E-01  -2.973758630770920E-01  -2.944207094833893E-01
  -2.914954729032964E-01  -2.885997943518530E-01  -2.857333212052557E-01
  -2.828957073881015E-01  -2.800866096796296E-01  -2.773057100821998E-01
  -2.745524163009183E-01  -2.701926655024490E-01  -2.675937500100053E-01
  -2.650167489877351E-01  -2.640808387863938E-01  -2.614528964097415E-01
  -2.588513970793045E-01  -2.562757830321269E-01  -2.537257967146090E-01
  -2.512011831346997E-01  -2.487016898365308E-01  -2.462270668579100E-01
  -2.437770667761144E-01  -2.413514445754997E-01  -2.389499576961223E-01
  -2.365723659909926E-01  -2.342184317021389E-01  -2.318879194368963E-01
  -2.295805961444266E-01  -2.272962310924644E-01  -2.250345958442934E-01
  -2.227954642359505E-01  -2.205786123535965E-01  -2.183838185112341E-01
  -2.162108632285125E-01  -2.140595292088172E-01  -2.119296013175605E-01
  -2.098208665606838E-01  -2.077331140633780E-01  -2.056661350490037E-01
  -2.036197228182276E-01  -2.015936727283613E-01  -1.995877821729056E-01
  -1.976018505612956E-01  -1.956356792988491E-01  -1.936890717669101E-01
  -1.917618333031917E-01  -1.898537711823145E-01  -1.879646945965350E-01
  -1.860944146366669E-01  -1.842427442731940E-01  -1.824094983375678E-01
  -1.805944935036913E-01  -1.787975482695882E-01  -1.770184829392527E-01
  -1.752571196046827E-01  -1.735132821280867E-01  -1.717867961242709E-01
  -1.700774889432026E-01  -1.683851896527440E-01  -1.667097290215594E-01
  -1.650509395021927E-01  -1.634086552143110E-01  -1.617827119281200E-01
  -1.601729470479369E-01  -1.585791995959331E-01  -1.570013101960364E-01
  -1.554391210579921E-01  -1.538924759615853E-01  -1.523612202410178E-01
  -1.508452007694419E-01  -1.493442659436463E-01  -1.478582656688993E-01
  -1.463870513439345E-01  -1.449304758460934E-01  -1.434883935166126E-01
  -1.420606601460575E-01  -1.406471329599011E-01  -1.392476706042470E-01
  -1.378621331316929E-01  -1.364903819873380E-01  -1.351322799949242E-01
  -1.337876913431204E-01  -1.324564815719410E-01  -1.311385175592996E-01
  -1.298336675076966E-01  -1.285418009310396E-01  -1.272627886415936E-01
  -1.259965027370648E-01  -1.247428165878074E-01  -1.235016048241615E-01
  -1.222727433239162E-01  -1.210561091998978E-01  -1.198515807876796E-01
  -1.186590376334170E-01  -1.174783604818005E-01  -1.163094312641307E-01
  -1.151521330865127E-01  -1.140063502181637E-01  -1.128719680798423E-01
  -1.117488732323890E-01  -1.106369533653834E-01  -1.095360972859121E-01
  -1.084461949074498E-01  -1.073671372388500E-01  -1.062988163734473E-01
  -1.052411254782647E-01  -1.041939587833312E-01  -1.031572115711046E-01
  -1.021307801659997E-01  -1.011145619240207E-01  -1.001084552224965E-01
  -9.911235944991822E-02  -9.812617499587922E-02  -9.714980324111187E-02
  -9.618314654762714E-02  -9.522610824894998E-02  -9.427859264045317E-02
  -9.334050496978609E-02  -9.241175142740002E-02  -9.149223913716682E-02
  -9.058187614709072E-02  -8.968057142011482E-02  -8.878823482501506E-02
  -8.790477712738817E-02  -8.703010998072841E-02  -8.616414591759188E-02
  -8.530679834085086E-02  -8.445798151503313E-02  -8.361761055774854E-02
  -8.278560143120160E-02  -8.196187093378601E-02  -8.114633669176562E-02
  -8.033891715103657E-02
  </PP_LOCAL>
  <PP_NONLOCAL>
    <PP_BETA.1 index="1" label="3S" angular_momentum="0" cutoff_radius_index="1145" cutoff_radius="2.00000000000000" ultrasoft_cutoff_radius="2.00000000000000">
   1.170783614685063E-04   1.182550185638398E-04   1.194435012596014E-04
   1.206439284050521E-04   1.218564200439074E-04   1.230810974263425E-04
   1.243180830211170E-04   1.255675005278222E-04   1.268294748892508E-04
   1.281041323038915E-04   1.293916002385489E-04   1.306920074410906E-04
   1.320054839533213E-04   1.333321611239879E-04   1.346721716219141E-04
   1.360256494492677E-04   1.373927299549602E-04   1.387735498481827E-04
   1.401682472120764E-04   1.415769615175414E-04   1.429998336371833E-04
   1.444370058594010E-04   1.458886219026160E-04   1.473548269296439E-04
   1.488357675622102E-04   1.503315918956140E-04   1.518424495135369E-04
   1.533684915030010E-04   1.549098704694791E-04   1.564667405521537E-04
   1.580392574393321E-04   1.596275783840155E-04   1.612318622196239E-04
   1.628522693758795E-04   1.644889618948502E-04   1.661421034471540E-04
   1.678118593483260E-04   1.694983965753496E-04   1.712018837833552E-04
   1.729224913224858E-04   1.746603912549314E-04   1.764157573721358E-04
   1.781887652121761E-04   1.799795920773165E-04   1.817884170517386E-04
   1.836154210194497E-04   1.854607866823721E-04   1.873246985786126E-04
   1.892073431009175E-04   1.911089085153108E-04   1.930295849799216E-04
   1.949695645640004E-04   1.969290412671257E-04   1.989082110386044E-04
   2.009072717970660E-04   2.029264234502565E-04   2.049658679150274E-04
   2.070258091375287E-04   2.091064531136034E-04   2.112080079093870E-04
   2.133306836821149E-04   2.154746927011378E-04   2.176402493691486E-04
   2.198275702436235E-04   2.220368740584777E-04   2.242683817459389E-04
   2.265223164586404E-04   2.287989035919370E-04   2.310983708064449E-04
   2.334209480508077E-04   2.357668675846903E-04   2.381363640020077E-04
   2.405296742543822E-04   2.429470376748401E-04   2.453886960017442E-04
   2.478548934029687E-04   2.503458765003159E-04   2.528618943941786E-04
   2.554031986884504E-04   2.579700435156858E-04   2.605626855625146E-04
   2.631813840953105E-04   2.658264009861166E-04   2.684980007388353E-04
   2.711964505156770E-04   2.739220201638771E-04   2.766749822426815E-04
   2.794556120506015E-04   2.822641876529453E-04   2.851009899096239E-04
   2.879663025032379E-04   2.908604119674447E-04   2.937836077156142E-04
   2.967361820697687E-04   2.997184302898163E-04   3.027306506030764E-04
   3.057731442341029E-04   3.088462154348078E-04   3.119501715148859E-04
   3.150853228725450E-04   3.182519830255482E-04   3.214504686425642E-04
   3.246810995748358E-04   3.279441988881643E-04   3.312400928952155E-04
   3.345691111881540E-04   3.379315866716004E-04   3.413278555959226E-04
   3.447582575908614E-04   3.482231356994941E-04   3.517228364125381E-04
   3.552577097030011E-04   3.588281090611784E-04   3.624343915300023E-04
   3.660769177407470E-04   3.697560519490912E-04   3.734721620715448E-04
   3.772256197222408E-04   3.810168002500965E-04   3.848460827763500E-04
   3.887138502324707E-04   3.926204893984542E-04   3.965663909415003E-04
   4.005519494550807E-04   4.045775634983967E-04   4.086436356362381E-04
   4.127505724792382E-04   4.168987847245361E-04   4.210886871968468E-04
   4.253206988899424E-04   4.295952430085546E-04   4.339127470106943E-04
   4.382736426503960E-04   4.426783660208968E-04   4.471273575982439E-04
   4.516210622853441E-04   4.561599294564528E-04   4.607444130021126E-04
   4.653749713745436E-04   4.700520676334882E-04   4.747761694925170E-04
   4.795477493658018E-04   4.843672844153571E-04   4.892352565987558E-04
   4.941521527173269E-04   4.991184644648353E-04   5.041346884766503E-04
   5.092013263794126E-04   5.143188848411954E-04   5.194878756221711E-04
   5.247088156257898E-04   5.299822269504693E-04   5.353086369418043E-04
   5.406885782453033E-04   5.461225888596518E-04   5.516112121905146E-04
   5.571549971048757E-04   5.627544979859251E-04   5.684102747884992E-04
   5.741228930950750E-04   5.798929241723309E-04   5.857209450282728E-04
   5.916075384699340E-04   5.975532931616595E-04   6.035588036839712E-04
   6.096246705930263E-04   6.157515004806743E-04   6.219399060351168E-04
   6.281905061021768E-04   6.345039257471829E-04   6.408807963174789E-04
   6.473217555055549E-04   6.538274474128220E-04   6.603985226140216E-04
   6.670356382222797E-04   6.737394579548252E-04   6.805106521993577E-04
   6.873498980810886E-04   6.942578795304552E-04   7.012352873515106E-04
   7.082828192910108E-04   7.154011801081856E-04   7.225910816452153E-04
   7.298532428984183E-04   7.371883900901500E-04   7.445972567414262E-04
   7.520805837452752E-04   7.596391194408277E-04   7.672736196881531E-04
   7.749848479438458E-04   7.827735753373697E-04   7.906405807481746E-04
   7.985866508835839E-04   8.066125803574670E-04   8.147191717696987E-04
   8.229072357864252E-04   8.311775912211253E-04   8.395310651164977E-04
   8.479684928271654E-04   8.564907181032080E-04   8.650985931745443E-04
   8.737929788361508E-04   8.825747445341445E-04   8.914447684527295E-04
   9.004039376020116E-04   9.094531479067079E-04   9.185933042957343E-04
   9.278253207927005E-04   9.371501206073165E-04   9.465686362277108E-04
   9.560818095136831E-04   9.656905917908901E-04   9.753959439459799E-04
   9.851988365226797E-04   9.951002498188556E-04   1.005101173984538E-03
   1.015202609120944E-03   1.025405565380485E-03   1.035711063067782E-03
   1.046120132741701E-03   1.056633815318410E-03   1.067253162175464E-03
   1.077979235256960E-03   1.088813107179716E-03   1.099755861340542E-03
   1.110808592024586E-03   1.121972404514753E-03   1.133248415202242E-03
   1.144637751698187E-03   1.156141552946413E-03   1.167760969337342E-03
   1.179497162823023E-03   1.191351307033338E-03   1.203324587393359E-03
   1.215418201241901E-03   1.227633357951246E-03   1.239971279048095E-03
   1.252433198335712E-03   1.265020362017309E-03   1.277734028820672E-03
   1.290575470124032E-03   1.303545970083203E-03   1.316646825760007E-03
   1.329879347251973E-03   1.343244857823355E-03   1.356744694037460E-03
   1.370380205890302E-03   1.384152756945608E-03   1.398063724471175E-03
   1.412114499576600E-03   1.426306487352393E-03   1.440641107010488E-03
   1.455119792026164E-03   1.469743990281403E-03   1.484515164209668E-03
   1.499434790942163E-03   1.514504362455536E-03   1.529725385721088E-03
   1.545099382855469E-03   1.560627891272897E-03   1.576312463838891E-03
   1.592154669025577E-03   1.608156091068521E-03   1.624318330125169E-03
   1.640643002434858E-03   1.657131740480443E-03   1.673786193151557E-03
   1.690608025909493E-03   1.707598920953758E-03   1.724760577390296E-03
   1.742094711401405E-03   1.759603056417350E-03   1.777287363289721E-03
   1.795149400466512E-03   1.813190954168977E-03   1.831413828570250E-03
   1.849819845975772E-03   1.868410847005522E-03   1.887188690778083E-03
   1.906155255096559E-03   1.925312436636361E-03   1.944662151134874E-03
   1.964206333583041E-03   1.983946938418870E-03   2.003885939722867E-03
   2.024025331415469E-03   2.044367127456422E-03   2.064913362046200E-03
   2.085666089829412E-03   2.106627386100292E-03   2.127799347010212E-03
   2.149184089777322E-03   2.170783752898267E-03   2.192600496362043E-03
   2.214636501866007E-03   2.236893973034050E-03   2.259375135636961E-03
   2.282082237815021E-03   2.305017550302810E-03   2.328183366656303E-03
   2.351582003482220E-03   2.375215800669700E-03   2.399087121624295E-03
   2.423198353504319E-03   2.447551907459568E-03   2.472150218872454E-03
   2.496995747601532E-03   2.522090978227513E-03   2.547438420301722E-03
   2.573040608597062E-03   2.598900103361502E-03   2.625019490574106E-03
   2.651401382203652E-03   2.678048416469822E-03   2.704963258107050E-03
   2.732148598630991E-03   2.759607156607697E-03   2.787341677925473E-03
   2.815354936069484E-03   2.843649732399111E-03   2.872228896428102E-03
   2.901095286107523E-03   2.930251788111592E-03   2.959701318126322E-03
   2.989446821141136E-03   3.019491271743362E-03   3.049837674415707E-03
   3.080489063836725E-03   3.111448505184291E-03   3.142719094442132E-03
   3.174303958709459E-03   3.206206256513665E-03   3.238429178126213E-03
   3.270975945881680E-03   3.303849814499990E-03   3.337054071411923E-03
   3.370592037087862E-03   3.404467065369866E-03   3.438682543807063E-03
   3.473241893994442E-03   3.508148571915008E-03   3.543406068285419E-03
   3.579017908905077E-03   3.614987655008722E-03   3.651318903622578E-03
   3.688015287924082E-03   3.725080477605221E-03   3.762518179239532E-03
   3.800332136652769E-03   3.838526131297332E-03   3.877103982630424E-03
   3.916069548496017E-03   3.955426725510684E-03   3.995179449453274E-03
   4.035331695658512E-03   4.075887479414589E-03   4.116850856364683E-03
   4.158225922912594E-03   4.200016816632389E-03   4.242227716682206E-03
   4.284862844222198E-03   4.327926462836683E-03   4.371422878960550E-03
   4.415356442309915E-03   4.459731546317162E-03   4.504552628570293E-03
   4.549824171256761E-03   4.595550701611701E-03   4.641736792370717E-03
   4.688387062227180E-03   4.735506176294167E-03   4.783098846570980E-03
   4.831169832414450E-03   4.879723941014861E-03   4.928766027876763E-03
   4.978300997304560E-03   5.028333802892990E-03   5.078869448022547E-03
   5.129912986359868E-03   5.181469522363156E-03   5.233544211792708E-03
   5.286142262226515E-03   5.339268933581121E-03   5.392929538637656E-03
   5.447129443573194E-03   5.501874068497426E-03   5.557168887994755E-03
   5.613019431671830E-03   5.669431284710556E-03   5.726410088426733E-03
   5.783961540834224E-03   5.842091397214863E-03   5.900805470694070E-03
   5.960109632822237E-03   6.020009814161982E-03   6.080512004881297E-03
   6.141622255352639E-03   6.203346676758115E-03   6.265691441700629E-03
   6.328662784821317E-03   6.392267003423084E-03   6.456510458100433E-03
   6.521399573375663E-03   6.586940838341409E-03   6.653140807309704E-03
   6.720006100467513E-03   6.787543404538889E-03   6.855759473453746E-03
   6.924661129023432E-03   6.994255261623025E-03   7.064548830880508E-03
   7.135548866372895E-03   7.207262468329315E-03   7.279696808341220E-03
   7.352859130079685E-03   7.426756750019959E-03   7.501397058173241E-03
   7.576787518825913E-03   7.652935671286101E-03   7.729849130637836E-03
   7.807535588502691E-03   7.886002813809207E-03   7.965258653569953E-03
   8.045311033666442E-03   8.126167959641922E-03   8.207837517502172E-03
   8.290327874524330E-03   8.373647280073847E-03   8.457804066429644E-03
   8.542806649617636E-03   8.628663530252559E-03   8.715383294388306E-03
   8.802974614376777E-03   8.891446249735454E-03   8.980807048023580E-03
   9.071065945727262E-03   9.162231969153363E-03   9.254314235332526E-03
   9.347321952931141E-03   9.441264423172568E-03   9.536151040767620E-03
   9.631991294854340E-03   9.728794769947343E-03   9.826571146896591E-03
   9.925330203855918E-03   1.002508181726116E-02   1.012583596281833E-02
   1.022760271650148E-02   1.033039225556088E-02   1.043421485954102E-02
   1.053908091130920E-02   1.064500089809418E-02   1.075198541253543E-02
   1.086004515374290E-02   1.096919092836747E-02   1.107943365168210E-02
   1.119078434867398E-02   1.130325415514753E-02   1.141685431883862E-02
   1.153159620053993E-02   1.164749127523765E-02   1.176455113325960E-02
   1.188278748143497E-02   1.200221214426564E-02   1.212283706510938E-02
   1.224467430737485E-02   1.236773605572872E-02   1.249203461731489E-02
   1.261758242298603E-02   1.274439202854745E-02   1.287247611601347E-02
   1.300184749487658E-02   1.313251910338925E-02   1.326450400985863E-02
   1.339781541395433E-02   1.353246664802943E-02   1.366847117845465E-02
   1.380584260696604E-02   1.394459467202621E-02   1.408474125019928E-02
   1.422629635753969E-02   1.436927415099493E-02   1.451368892982243E-02
   1.465955513702076E-02   1.480688736077517E-02   1.495570033591776E-02
   1.510600894540223E-02   1.525782822179366E-02   1.541117334877314E-02
   1.556605966265766E-02   1.572250265393522E-02   1.588051796881547E-02
   1.604012141079592E-02   1.620132894224400E-02   1.636415668599501E-02
   1.652862092696605E-02   1.669473811378653E-02   1.686252486044476E-02
   1.703199794795134E-02   1.720317432601919E-02   1.737607111476066E-02
   1.755070560640163E-02   1.772709526701286E-02   1.790525773825886E-02
   1.808521083916441E-02   1.826697256789878E-02   1.845056110357808E-02
   1.863599480808558E-02   1.882329222791062E-02   1.901247209600590E-02
   1.920355333366353E-02   1.939655505240997E-02   1.959149655592020E-02
   1.978839734195105E-02   1.998727710429413E-02   2.018815573474840E-02
   2.039105332511262E-02   2.059599016919801E-02   2.080298676486109E-02
   2.101206381605714E-02   2.122324223491419E-02   2.143654314382823E-02
   2.165198787757935E-02   2.186959798546931E-02   2.208939523348052E-02
   2.231140160645724E-02   2.253563931030830E-02   2.276213077423241E-02
   2.299089865296569E-02   2.322196582905222E-02   2.345535541513708E-02
   2.369109075628303E-02   2.392919543231012E-02   2.416969326015938E-02
   2.441260829628007E-02   2.465796483904116E-02   2.490578743116720E-02
   2.515610086219883E-02   2.540893017097803E-02   2.566430064815869E-02
   2.592223783874237E-02   2.618276754463982E-02   2.644591582725835E-02
   2.671170901011544E-02   2.698017368147872E-02   2.725133669703253E-02
   2.752522518257183E-02   2.780186653672301E-02   2.808128843369236E-02
   2.836351882604237E-02   2.864858594749622E-02   2.893651831577042E-02
   2.922734473543648E-02   2.952109430081115E-02   2.981779639887636E-02
   3.011748071222843E-02   3.042017722205735E-02   3.072591621115600E-02
   3.103472826696033E-02   3.134664428461981E-02   3.166169547009948E-02
   3.197991334331306E-02   3.230132974128826E-02   3.262597682136378E-02
   3.295388706441912E-02   3.328509327813689E-02   3.361962860029828E-02
   3.395752650211224E-02   3.429882079157814E-02   3.464354561688279E-02
   3.499173546983173E-02   3.534342518931582E-02   3.569864996481267E-02
   3.605744533992378E-02   3.641984721594755E-02   3.678589185548905E-02
   3.715561588610591E-02   3.752905630399176E-02   3.790625047769681E-02
   3.828723615188676E-02   3.867205145113951E-02   3.906073488378082E-02
   3.945332534575896E-02   3.984986212455894E-02   4.025038490315645E-02
   4.065493376401237E-02   4.106354919310768E-02   4.147627208401999E-02
   4.189314374204128E-02   4.231420588833778E-02   4.273950066415261E-02
   4.316907063505076E-02   4.360295879520806E-02   4.404120857174372E-02
   4.448386382909707E-02   4.493096887344923E-02   4.538256845719002E-02
   4.583870778343047E-02   4.629943251056173E-02   4.676478875686034E-02
   4.723482310514122E-02   4.770958260745781E-02   4.818911478985083E-02
   4.867346765714532E-02   4.916268969779750E-02   4.965682988879087E-02
   5.015593770058288E-02   5.066006310210221E-02   5.116925656579790E-02
   5.168356907273969E-02   5.220305211777161E-02   5.272775771471783E-02
   5.325773840164306E-02   5.379304724616626E-02   5.433373785082971E-02
   5.487986435852313E-02   5.543148145796409E-02   5.598864438923476E-02
   5.655140894937594E-02   5.711983149803898E-02   5.769396896319577E-02
   5.827387884690872E-02   5.885961923115935E-02   5.945124878373813E-02
   6.004882676419473E-02   6.065241302985078E-02   6.126206804187410E-02
   6.187785287141675E-02   6.249982920581638E-02   6.312805935486254E-02
   6.376260625712764E-02   6.440353348636431E-02   6.505090525796901E-02
   6.570478643551350E-02   6.636524253734394E-02   6.703233974324943E-02
   6.770614490119951E-02   6.838672553415306E-02   6.907414984693762E-02
   6.976848673320130E-02   7.046980578243692E-02   7.117817728708088E-02
   7.189367224968540E-02   7.261636239016701E-02   7.334632015313061E-02
   7.408361871527100E-02   7.482833199285244E-02   7.558053464926684E-02
   7.634030210267169E-02   7.710771053370881E-02   7.788283689330489E-02
   7.866575891055404E-02   7.945655510068467E-02   8.025530477310966E-02
   8.106208803956327E-02   8.187698582232388E-02   8.270007986252401E-02
   8.353145272854903E-02   8.437118782452574E-02   8.521936939890108E-02
   8.607608255311265E-02   8.694141325035173E-02   8.781544832442087E-02
   8.869827548868552E-02   8.958998334512253E-02   9.049066139346498E-02
   9.140040004044657E-02   9.231929060914469E-02   9.324742534842474E-02
   9.418489744248634E-02   9.513180102051232E-02   9.608823116642337E-02
   9.705428392873748E-02   9.803005633053676E-02   9.901564637954248E-02
   1.000111530783005E-01   1.010166764344771E-01   1.020323174712676E-01
   1.030581782379184E-01   1.040943618203654E-01   1.051409723519879E-01
   1.061981150244816E-01   1.072658960988509E-01   1.083444229165224E-01
   1.094338039105814E-01   1.105341486171327E-01   1.116455676867867E-01
   1.127681728962744E-01   1.139020771601899E-01   1.150473945428652E-01
   1.162042402703763E-01   1.173727307426848E-01   1.185529835459146E-01
   1.197451174647669E-01   1.209492524950746E-01   1.221655098564979E-01
   1.233940120053644E-01   1.246348826476531E-01   1.258882467521264E-01
   1.271542305636107E-01   1.284329616164295E-01   1.297245687479878E-01
   1.310291821125137E-01   1.323469331949557E-01   1.336779548250417E-01
   1.350223811914976E-01   1.363803478564322E-01   1.377519917698854E-01
   1.391374512845486E-01   1.405368661706534E-01   1.419503776310352E-01
   1.433781283163713E-01   1.448202623405990E-01   1.462769252965129E-01
   1.477482642715474E-01   1.492344278637433E-01   1.507355661979049E-01
   1.522518309419479E-01   1.537833753234411E-01   1.553303541463463E-01
   1.568929238079572E-01   1.584712423160422E-01   1.600654693061919E-01
   1.616757660593776E-01   1.633022955197189E-01   1.649452223124704E-01
   1.666047127622237E-01   1.682809349113330E-01   1.699740585385650E-01
   1.716842551779789E-01   1.734116981380369E-01   1.751565625209510E-01
   1.769190252422699E-01   1.786992650507078E-01   1.804974625482210E-01
   1.823138002103357E-01   1.841484624067276E-01   1.860016354220647E-01
   1.878735074771092E-01   1.897642687500884E-01   1.916741113983351E-01
   1.936032295802060E-01   1.955518194772785E-01   1.975200793168324E-01
   1.995082093946211E-01   2.015164120979359E-01   2.035448919289710E-01
   2.055938555284903E-01   2.076635116998041E-01   2.097540714330579E-01
   2.118657479298438E-01   2.139987566281324E-01   2.161533152275372E-01
   2.183296437149127E-01   2.205279643902958E-01   2.227485018931923E-01
   2.249914832292167E-01   2.272571377970911E-01   2.295456974160096E-01
   2.318573963533737E-01   2.341924713529050E-01   2.365511616631433E-01
   2.389337090663352E-01   2.413403579077214E-01   2.437713551252279E-01
   2.462269502795692E-01   2.487073955847733E-01   2.512129459391307E-01
   2.537438589565784E-01   2.563003949985290E-01   2.588828172061441E-01
   2.614913915330730E-01   2.641263867786526E-01   2.667880746215842E-01
   2.694767296540935E-01   2.721926294165840E-01   2.749360544327900E-01
   2.777072882454413E-01   2.805066174524470E-01   2.833343317436093E-01
   2.861907239378760E-01   2.890760900211420E-01   2.919907291846099E-01
   2.949349438637210E-01   2.979090397776651E-01   3.009133259694826E-01
   3.039481148467657E-01   3.070137222229777E-01   3.101104673593913E-01
   3.132386730076671E-01   3.163986654530768E-01   3.195907745583906E-01
   3.228153338084343E-01   3.260726803553319E-01   3.293631550644462E-01
   3.326871025610332E-01   3.360448712776169E-01   3.394368135021049E-01
   3.428632854266551E-01   3.463246471973082E-01   3.498212629644021E-01
   3.533535009337796E-01   3.569217334188058E-01   3.605263368932140E-01
   3.641676920447870E-01   3.678461838298982E-01   3.715622015289248E-01
   3.753161388025480E-01   3.791083937489577E-01   3.829393689619809E-01
   3.868094715901468E-01   3.907191133967087E-01   3.946687108206396E-01
   3.986586850386157E-01   4.026894620280166E-01   4.067614726309453E-01
   4.108751526192979E-01   4.150309427608989E-01   4.192292888867181E-01
   4.234706419591929E-01   4.277554581416716E-01   4.320841988690011E-01
   4.364573309192723E-01   4.408753264867569E-01   4.453386632560358E-01
   4.498478244773593E-01   4.544032990432461E-01   4.590055815663492E-01
   4.636551724586063E-01   4.683525780116967E-01   4.730983104788232E-01
   4.778928881578488E-01   4.827368354757967E-01   4.876306830747427E-01
   4.925749678991226E-01   4.975702332844678E-01   5.026170290476002E-01
   5.077159115782989E-01   5.128674439324603E-01   5.180721959267838E-01
   5.233307442349833E-01   5.286436724855633E-01   5.340115713611669E-01
   5.394350386995227E-01   5.449146795960043E-01   5.504511065078246E-01
   5.560449393598815E-01   5.616968056522663E-01   5.674073405694661E-01
   5.731771870912596E-01   5.790069961053276E-01   5.848974265215968E-01
   5.908491453883207E-01   5.968628280099150E-01   6.029391580665590E-01
   6.090788277355605E-01   6.152825378145121E-01   6.215509978462213E-01
   6.278849262454352E-01   6.342850504273539E-01   6.407521069379334E-01
   6.472868415859752E-01   6.538900095770042E-01   6.605623756489061E-01
   6.673047142093499E-01   6.741178094749419E-01   6.810024556121218E-01
   6.879594568797688E-01   6.949896277734943E-01   7.020937931715968E-01
   7.092727884826402E-01   7.165274597946176E-01   7.238586640256697E-01
   7.312672690762939E-01   7.387541539829940E-01   7.463202090733241E-01
   7.539663361222390E-01   7.616934485096942E-01   7.695024713794089E-01
   7.773943417986999E-01   7.853700089192913E-01   7.934304341390037E-01
   8.015765912641872E-01   8.098094666727905E-01   8.181300594779212E-01
   8.265393816917483E-01   8.350384583895938E-01   8.436283278740334E-01
   8.523100418388173E-01   8.610846655324274E-01   8.699532779210266E-01
   8.789169718505950E-01   8.879768542079810E-01   8.971340460806119E-01
   9.063896829145736E-01   9.157449146707471E-01   9.252009059786693E-01
   9.347588362877821E-01   9.444199000156666E-01   9.541853066928768E-01
   9.640562811039369E-01   9.740340634240403E-01   9.841199093509647E-01
   9.943150902316753E-01   1.004620893183065E+00   1.015038621206231E+00
   1.025569593293669E+00   1.036215144528706E+00   1.046976626176452E+00
   1.057855405765528E+00   1.068852867159753E+00   1.079970410618935E+00
   1.091209452847868E+00   1.102571427032548E+00   1.114057782862625E+00
   1.125669986538953E+00   1.137409520765139E+00   1.149277884721839E+00
   1.161276594022528E+00   1.173407180649358E+00   1.185671192867685E+00
   1.198070195117692E+00   1.210605767881534E+00   1.223279507524239E+00
   1.236093026106587E+00   1.249047951168029E+00   1.262145925477619E+00
   1.275388606750822E+00   1.288777667329916E+00   1.302314793825619E+00
   1.316001686717367E+00   1.329840059909645E+00   1.343831640241468E+00
   1.357978166946108E+00   1.372281391057887E+00   1.386743074762737E+00
   1.401364990689048E+00   1.416148921135101E+00   1.431096657229205E+00
   1.446209998018490E+00   1.461490749481976E+00   1.476940723463437E+00
   1.492561736519258E+00   1.508355608676236E+00   1.524324162094054E+00
   1.540469219626831E+00   1.556792603277871E+00   1.573296132541490E+00
   1.589981622625346E+00   1.606850882546532E+00   1.623905713094203E+00
   1.641147904651221E+00   1.658579234866905E+00   1.676201466172563E+00
   1.694016343131083E+00   1.712025589611398E+00   1.730230905778279E+00
   1.748633964887284E+00   1.767236409874356E+00   1.786039849728977E+00
   1.805045855639252E+00   1.824255956896783E+00   1.843671636548590E+00
   1.863294326782756E+00   1.883125404033888E+00   1.903166183793768E+00
   1.923417915112006E+00   1.943881774770773E+00   1.964558861116991E+00
   1.985450187534654E+00   2.006556675539203E+00   2.027879147475079E+00
   2.049418318796880E+00   2.071174789913613E+00   2.093149037574842E+00
   2.115341405776589E+00   2.137752096164055E+00   2.160381157907347E+00
   2.183228477025474E+00   2.206293765133064E+00   2.229576547583295E+00
   2.253076150979702E+00   2.276791690028548E+00   2.300722053702668E+00
   2.324865890686755E+00   2.349221594073227E+00   2.373787285277005E+00
   2.398560797136751E+00   2.423539656169296E+00   2.448721063943481E+00
   2.474101877538757E+00   2.499678589053559E+00   2.525447304127922E+00
   2.551403719444425E+00   2.577543099171420E+00   2.603860250312330E+00
   2.630349496924903E+00   2.657004653174669E+00   2.683818995187130E+00
   2.710785231664148E+00   2.737895473230852E+00   2.765141200480707E+00
   2.792513230688058E+00   2.820001683159441E+00   2.847595943197415E+00
   2.875284624653552E+00   2.903055531050748E+00   2.930895615258909E+00
   2.958790937712788E+00   2.986726623166208E+00   3.014686815982824E+00
   3.042654633970824E+00   3.070612120776711E+00   3.098540196862359E+00
   3.126418609099604E+00   3.154225879027835E+00   3.181939249832767E+00
   3.209534632118537E+00   3.236986548560888E+00   3.264268077546489E+00
   3.291350795922453E+00   3.318204721001194E+00   3.344798251988888E+00
   3.371098111030978E+00   3.397069284096095E+00   3.422674961949818E+00
   3.447876481502690E+00   3.472633267852690E+00   3.496902777381001E+00
   3.520640442301880E+00   3.543799617112450E+00   3.566331527436903E+00
   3.588185221811409E+00   3.609307527011827E+00   3.629643007585452E+00
   3.649133930311021E+00   3.667720234377859E+00   3.685339508145292E+00
   3.701926973417295E+00   3.717415478244590E+00   3.731735499346633E+00
   3.744815155329213E+00   3.756580231958843E+00   3.766954220842559E+00
   3.775858372950301E+00   3.783211768506020E+00   3.788931404862061E+00
   3.792932304057907E+00   3.795127641847944E+00   3.795428900061666E+00
   3.793746044232115E+00   3.789987728491989E+00   3.784061529789672E+00
   3.775874213516504E+00   3.765332032659188E+00   3.752341062593707E+00
   3.736807573616121E+00   3.718638443256916E+00   3.697741610344791E+00
   3.674026572668402E+00   3.647404929925183E+00   3.617790973439994E+00
   3.585102323877090E+00   3.549260617850969E+00   3.510192243959156E+00
   3.467829128306933E+00   3.422109569064210E+00   3.372979118982840E+00
   3.320391514102936E+00   3.264309646084815E+00   3.204706574714752E+00
   3.141566576145185E+00   3.074886221341553E+00   3.004675478019423E+00
   2.930958828068153E+00   2.853776391076971E+00   2.773185043112634E+00
   2.689259518356002E+00   2.602093479602611E+00   2.511800541987617E+00
   2.418515232632588E+00   2.322393867257002E+00   2.223615323186111E+00
   2.122381686655570E+00   2.018918750907402E+00   1.913476340340339E+00
   1.806328434974737E+00   1.697773068777941E+00   1.588131975033476E+00
   1.477749951992747E+00   1.366993922591668E+00   1.256251663113165E+00
   1.145930177400228E+00   1.036453695636703E+00   9.282612798728781E-01
   8.218040224319184E-01   7.175418281306558E-01   6.159397769102996E-01
   5.174640700109976E-01   4.225775702281251E-01   3.317349550310336E-01
   2.453775103544411E-01   1.639276026152651E-01   8.778287686774235E-02
   1.731023987087563E-02  -4.716030193020093E-02  -1.053418680588945E-01
  -1.569969003323933E-01  -2.019432254598875E-01  -2.400598683069303E-01
  -2.712924893461748E-01  -2.956583093588205E-01  -3.132503744388908E-01
  -3.242410047472438E-01  -3.288842611539010E-01  -3.275172546883555E-01
  -3.205601142949848E-01  -3.085144183585528E-01  -2.919598843304644E-01
  -2.715490979587558E-01  -2.480000484546072E-01  -2.220862177262814E-01
  -1.946239499000114E-01  -1.664568011261907E-01  -1.384365386773921E-01
  -1.114004223669234E-01  -8.614436046699209E-02  -6.339148713840058E-02
  -4.375565997126583E-02  -2.769932622771008E-02  -1.548515696283452E-02
  -7.120801962638697E-03  -2.296077978480155E-03  -3.118699681852920E-04
   2.909452312305483E-14   0.000000000000000E+00   0.000000000000000E+00
   0.000000000000000E+00   0.000000000000000E+00   0.000000000000000E+00
   0.000000000000000E+00   0.000000000000000E+00   0.000000000000000E+00
   0.000000000000000E+00   0.000000000000000E+00   0.000000000000000E+00
   0.000000000000000E+00   0.000000000000000E+00   0.000000000000000E+00
   0.000000000000000E+00   0.000000000000000E+00   0.000000000000000E+00
   0.000000000000000E+00   0.000000000000000E+00   0.000000000000000E+00
   0.000000000000000E+00   0.000000000000000E+00   0.000000000000000E+00
   0.000000000000000E+00   0.000000000000000E+00   0.000000000000000E+00
   0.000000000000000E+00   0.000000000000000E+00   0.000000000000000E+00
   0.000000000000000E+00   0.000000000000000E+00   0.000000000000000E+00
   0.000000000000000E+00   0.000000000000000E+00   0.000000000000000E+00
   0.000000000000000E+00   0.000000000000000E+00   0.000000000000000E+00
   0.000000000000000E+00   0.000000000000000E+00   0.000000000000000E+00
   0.000000000000000E+00   0.000000000000000E+00   0.000000000000000E+00
   0.000000000000000E+00   0.000000000000000E+00   0.000000000000000E+00
   0.000000000000000E+00   0.000000000000000E+00   0.000000000000000E+00
   0.000000000000000E+00   0.000000000000000E+00   0.000000000000000E+00
   0.000000000000000E+00   0.000000000000000E+00   0.000000000000000E+00
   0.000000000000000E+00   0.000000000000000E+00   0.000000000000000E+00
   0.000000000000000E+00   0.000000000000000E+00   0.000000000000000E+00
   0.000000000000000E+00   0.000000000000000E+00   0.000000000000000E+00
   0.000000000000000E+00   0.000000000000000E+00   0.000000000000000E+00
   0.000000000000000E+00   0.000000000000000E+00   0.000000000000000E+00
   0.000000000000000E+00   0.000000000000000E+00   0.000000000000000E+00
   0.000000000000000E+00   0.000000000000000E+00   0.000000000000000E+00
   0.000000000000000E+00   0.000000000000000E+00   0.000000000000000E+00
   0.000000000000000E+00   0.000000000000000E+00   0.000000000000000E+00
   0.000000000000000E+00   0.000000000000000E+00   0.000000000000000E+00
   0.000000000000000E+00   0.000000000000000E+00   0.000000000000000E+00
   0.000000000000000E+00   0.000000000000000E+00   0.000000000000000E+00
   0.000000000000000E+00   0.000000000000000E+00   0.000000000000000E+00
   0.000000000000000E+00   0.000000000000000E+00   0.000000000000000E+00
   0.000000000000000E+00   0.000000000000000E+00   0.000000000000000E+00
   0.000000000000000E+00   0.000000000000000E+00   0.000000000000000E+00
   0.000000000000000E+00   0.000000000000000E+00   0.000000000000000E+00
   0.000000000000000E+00   0.000000000000000E+00   0.000000000000000E+00
   0.000000000000000E+00   0.000000000000000E+00   0.000000000000000E+00
   0.000000000000000E+00   0.000000000000000E+00   0.000000000000000E+00
   0.000000000000000E+00   0.000000000000000E+00   0.000000000000000E+00
   0.000000000000000E+00   0.000000000000000E+00   0.000000000000000E+00
   0.000000000000000E+00   0.000000000000000E+00   0.000000000000000E+00
   0.000000000000000E+00   0.000000000000000E+00   0.000000000000000E+00
   0.000000000000000E+00   0.000000000000000E+00   0.000000000000000E+00
   0.000000000000000E+00   0.000000000000000E+00   0.000000000000000E+00
   0.000000000000000E+00   0.000000000000000E+00   0.000000000000000E+00
   0.000000000000000E+00   0.000000000000000E+00   0.000000000000000E+00
   0.000000000000000E+00   0.000000000000000E+00   0.000000000000000E+00
   0.000000000000000E+00   0.000000000000000E+00   0.000000000000000E+00
   0.000000000000000E+00   0.000000000000000E+00   0.000000000000000E+00
   0.000000000000000E+00   0.000000000000000E+00   0.000000000000000E+00
   0.000000000000000E+00   0.000000000000000E+00   0.000000000000000E+00
   0.000000000000000E+00   0.000000000000000E+00   0.000000000000000E+00
   0.000000000000000E+00   0.000000000000000E+00   0.000000000000000E+00
   0.000000000000000E+00   0.000000000000000E+00   0.000000000000000E+00
   0.000000000000000E+00   0.000000000000000E+00   0.000000000000000E+00
   0.000000000000000E+00   0.000000000000000E+00   0.000000000000000E+00
   0.000000000000000E+00   0.000000000000000E+00   0.000000000000000E+00
   0.000000000000000E+00   0.000000000000000E+00   0.000000000000000E+00
   0.000000000000000E+00   0.000000000000000E+00   0.000000000000000E+00
   0.000000000000000E+00   0.000000000000000E+00   0.000000000000000E+00
   0.000000000000000E+00   0.000000000000000E+00   0.000000000000000E+00
   0.000000000000000E+00   0.000000000000000E+00   0.000000000000000E+00
   0.000000000000000E+00   0.000000000000000E+00   0.000000000000000E+00
   0.000000000000000E+00   0.000000000000000E+00   0.000000000000000E+00
   0.000000000000000E+00   0.000000000000000E+00   0.000000000000000E+00
   0.000000000000000E+00   0.000000000000000E+00   0.000000000000000E+00
   0.000000000000000E+00   0.000000000000000E+00   0.000000000000000E+00
   0.000000000000000E+00   0.000000000000000E+00   0.000000000000000E+00
   0.000000000000000E+00   0.000000000000000E+00   0.000000000000000E+00
   0.000000000000000E+00   0.000000000000000E+00   0.000000000000000E+00
   0.000000000000000E+00   0.000000000000000E+00   0.000000000000000E+00
   0.000000000000000E+00   0.000000000000000E+00   0.000000000000000E+00
   0.000000000000000E+00   0.000000000000000E+00   0.000000000000000E+00
   0.000000000000000E+00   0.000000000000000E+00   0.000000000000000E+00
   0.000000000000000E+00   0.000000000000000E+00   0.000000000000000E+00
   0.000000000000000E+00   0.000000000000000E+00   0.000000000000000E+00
   0.000000000000000E+00   0.000000000000000E+00   0.000000000000000E+00
   0.000000000000000E+00   0.000000000000000E+00   0.000000000000000E+00
   0.000000000000000E+00   0.000000000000000E+00   0.000000000000000E+00
   0.000000000000000E+00   0.000000000000000E+00   0.000000000000000E+00
   0.000000000000000E+00   0.000000000000000E+00   0.000000000000000E+00
   0.000000000000000E+00   0.000000000000000E+00   0.000000000000000E+00
   0.000000000000000E+00   0.000000000000000E+00   0.000000000000000E+00
   0.000000000000000E+00   0.000000000000000E+00   0.000000000000000E+00
   0.000000000000000E+00   0.000000000000000E+00   0.000000000000000E+00
   0.000000000000000E+00   0.000000000000000E+00   0.000000000000000E+00
   0.000000000000000E+00   0.000000000000000E+00   0.000000000000000E+00
   0.000000000000000E+00   0.000000000000000E+00   0.000000000000000E+00
   0.000000000000000E+00   0.000000000000000E+00   0.000000000000000E+00
   0.000000000000000E+00   0.000000000000000E+00   0.000000000000000E+00
   0.000000000000000E+00   0.000000000000000E+00   0.000000000000000E+00
   0.000000000000000E+00   0.000000000000000E+00   0.000000000000000E+00
   0.000000000000000E+00   0.000000000000000E+00   0.000000000000000E+00
   0.000000000000000E+00   0.000000000000000E+00   0.000000000000000E+00
   0.000000000000000E+00   0.000000000000000E+00   0.000000000000000E+00
   0.000000000000000E+00   0.000000000000000E+00   0.000000000000000E+00
   0.000000000000000E+00   0.000000000000000E+00   0.000000000000000E+00
   0.000000000000000E+00   0.000000000000000E+00   0.000000000000000E+00
   0.000000000000000E+00   0.000000000000000E+00   0.000000000000000E+00
   0.000000000000000E+00   0.000000000000000E+00   0.000000000000000E+00
   0.000000000000000E+00   0.000000000000000E+00   0.000000000000000E+00
   0.000000000000000E+00   0.000000000000000E+00   0.000000000000000E+00
   0.000000000000000E+00   0.000000000000000E+00   0.000000000000000E+00
   0.000000000000000E+00   0.000000000000000E+00   0.000000000000000E+00
   0.000000000000000E+00   0.000000000000000E+00   0.000000000000000E+00
   0.000000000000000E+00   0.000000000000000E+00   0.000000000000000E+00
   0.000000000000000E+00   0.000000000000000E+00   0.000000000000000E+00
   0.000000000000000E+00   0.000000000000000E+00   0.000000000000000E+00
   0.000000000000000E+00   0.000000000000000E+00   0.000000000000000E+00
   0.000000000000000E+00   0.000000000000000E+00   0.000000000000000E+00
   0.000000000000000E+00   0.000000000000000E+00   0.000000000000000E+00
   0.000000000000000E+00   0.000000000000000E+00   0.000000000000000E+00
   0.000000000000000E+00   0.000000000000000E+00   0.000000000000000E+00
   0.000000000000000E+00   0.000000000000000E+00   0.000000000000000E+00
   0.000000000000000E+00   0.000000000000000E+00   0.000000000000000E+00
   0.000000000000000E+00   0.000000000000000E+00   0.000000000000000E+00
   0.000000000000000E+00   0.000000000000000E+00   0.000000000000000E+00
   0.000000000000000E+00   0.000000000000000E+00   0.000000000000000E+00
   0.000000000000000E+00   0.000000000000000E+00   0.000000000000000E+00
   0.000000000000000E+00   0.000000000000000E+00   0.000000000000000E+00
   0.000000000000000E+00   0.000000000000000E+00   0.000000000000000E+00
   0.000000000000000E+00   0.000000000000000E+00   0.000000000000000E+00
   0.000000000000000E+00   0.000000000000000E+00   0.000000000000000E+00
   0.000000000000000E+00   0.000000000000000E+00   0.000000000000000E+00
   0.000000000000000E+00   0.000000000000000E+00   0.000000000000000E+00
   0.000000000000000E+00   0.000000000000000E+00   0.000000000000000E+00
   0.000000000000000E+00   0.000000000000000E+00   0.000000000000000E+00
   0.000000000000000E+00   0.000000000000000E+00   0.000000000000000E+00
   0.000000000000000E+00   0.000000000000000E+00   0.000000000000000E+00
   0.000000000000000E+00
    </PP_BETA.1>
    <PP_BETA.2 index="2" label="3P" angular_momentum="1" cutoff_radius_index="1145" cutoff_radius="2.00000000000000" ultrasoft_cutoff_radius="2.00000000000000">
  -6.022448724367492E-09  -6.144110258830179E-09  -6.268229519318233E-09
  -6.394856155190779E-09  -6.524040818790497E-09  -6.655835185705278E-09
  -6.790291975439145E-09  -6.927464972500747E-09  -7.067409047917848E-09
  -7.210180181186534E-09  -7.355835482663709E-09  -7.504433216412042E-09
  -7.656032823506287E-09  -7.810694945810612E-09  -7.968481450236073E-09
  -8.129455453488264E-09  -8.293681347314752E-09  -8.461224824262730E-09
  -8.632152903956878E-09  -8.806533959908092E-09  -8.984437746863795E-09
  -9.165935428710789E-09  -9.351099606941755E-09  -9.540004349696825E-09
  -9.732725221391766E-09  -9.929339312944842E-09  -1.012992527261416E-08
  -1.033456333745802E-08  -1.054333536543085E-08  -1.075632486812738E-08
  -1.097361704418851E-08  -1.119529881338185E-08  -1.142145885137080E-08
  -1.165218762518592E-08  -1.188757742941308E-08  -1.212772242311244E-08
  -1.237271866748336E-08  -1.262266416429009E-08  -1.287765889506392E-08
  -1.313780486109699E-08  -1.340320612424428E-08  -1.367396884854959E-08
  -1.395020134271274E-08  -1.423201410341441E-08  -1.451951985951630E-08
  -1.481283361715410E-08  -1.511207270574162E-08  -1.541735682490405E-08
  -1.572880809235940E-08  -1.604655109276716E-08  -1.637071292756394E-08
  -1.670142326580568E-08  -1.703881439603700E-08  -1.738302127920841E-08
  -1.773418160266239E-08  -1.809243583521030E-08  -1.845792728332171E-08
  -1.883080214844888E-08  -1.921120958550932E-08  -1.959930176254977E-08
  -1.999523392161534E-08  -2.039916444084860E-08  -2.081125489784266E-08
  -2.123167013427464E-08  -2.166057832184439E-08  -2.209815102954544E-08
  -2.254456329229486E-08  -2.299999368094961E-08  -2.346462437373727E-08
  -2.393864122912972E-08  -2.442223386018889E-08  -2.491559571041483E-08
  -2.541892413112538E-08  -2.593242046039951E-08  -2.645629010361508E-08
  -2.699074261561388E-08  -2.753599178452631E-08  -2.809225571728945E-08
  -2.865975692689280E-08  -2.923872242138625E-08  -2.982938379468668E-08
  -3.043197731921838E-08  -3.104674404042502E-08  -3.167392987319145E-08
  -3.231378570021256E-08  -3.296656747234995E-08  -3.363253631101553E-08
  -3.431195861262354E-08  -3.500510615515289E-08  -3.571225620686173E-08
  -3.643369163719867E-08  -3.716970102995396E-08  -3.792057879869731E-08
  -3.868662530454699E-08  -3.946814697631836E-08  -4.026545643309925E-08
  -4.107887260930214E-08  -4.190872088224198E-08  -4.275533320229144E-08
  -4.361904822566536E-08  -4.450021144988808E-08  -4.539917535199675E-08
  -4.631629952953708E-08  -4.725195084440703E-08  -4.820650356960615E-08
  -4.918033953895045E-08  -5.017384829981058E-08  -5.118742726893577E-08
  -5.222148189142635E-08  -5.327642580291684E-08  -5.435268099503578E-08
  -5.545067798420820E-08  -5.657085598386737E-08  -5.771366308014682E-08
  -5.887955641112017E-08  -6.006900234966255E-08  -6.128247669000619E-08
  -6.252046483806428E-08  -6.378346200559986E-08  -6.507197340831709E-08
  -6.638651446795432E-08  -6.772761101845928E-08  -6.909579951633040E-08
  -7.049162725520611E-08  -7.191565258478923E-08  -7.336844513419514E-08
  -7.485058603981028E-08  -7.636266817775493E-08  -7.790529640104129E-08
  -7.947908778152250E-08  -8.108467185673039E-08  -8.272269088169823E-08
  -8.439380008587099E-08  -8.609866793520710E-08  -8.783797639957243E-08
  -8.961242122553807E-08  -9.142271221468811E-08  -9.326957350754910E-08
  -9.515374387325693E-08  -9.707597700507384E-08  -9.903704182187536E-08
  -1.010377227757287E-07  -1.030788201656839E-07  -1.051611504579038E-07
  -1.072855466122620E-07  -1.094528584155373E-07  -1.116639528213395E-07
  -1.139197142969033E-07  -1.162210451768866E-07  -1.185688660243157E-07
  -1.209641159988237E-07  -1.234077532323268E-07  -1.259007552122890E-07
  -1.284441191727310E-07  -1.310388624931361E-07  -1.336860231054169E-07
  -1.363866599091009E-07  -1.391418531949043E-07  -1.419527050768632E-07
  -1.448203399331940E-07  -1.477459048560587E-07  -1.507305701104187E-07
  -1.537755296021541E-07  -1.568820013556439E-07  -1.600512280009915E-07
  -1.632844772710921E-07  -1.665830425087446E-07  -1.699482431840045E-07
  -1.733814254219901E-07  -1.768839625413504E-07  -1.804572556036111E-07
  -1.841027339736164E-07  -1.878218558912959E-07  -1.916161090549799E-07
  -1.954870112164957E-07  -1.994361107882927E-07  -2.034649874628247E-07
  -2.075752528444496E-07  -2.117685510940921E-07  -2.160465595869290E-07
  -2.204109895833635E-07  -2.248635869135513E-07  -2.294061326757542E-07
  -2.340404439488060E-07  -2.387683745189662E-07  -2.435918156214600E-07
  -2.485126966969976E-07  -2.535329861635743E-07  -2.586546922038671E-07
  -2.638798635685322E-07  -2.692105903957323E-07  -2.746490050472212E-07
  -2.801972829613160E-07  -2.858576435231014E-07  -2.916323509522127E-07
  -2.975237152085555E-07  -3.035340929163170E-07  -3.096658883066509E-07
  -3.159215541794002E-07  -3.223035928842473E-07  -3.288145573216923E-07
  -3.354570519642420E-07  -3.422337338982368E-07  -3.491473138867196E-07
  -3.562005574537749E-07  -3.633962859907796E-07  -3.707373778849935E-07
  -3.782267696709524E-07  -3.858674572051235E-07  -3.936624968642849E-07
  -4.016150067681197E-07  -4.097281680265024E-07  -4.180052260119874E-07
  -4.264494916579990E-07  -4.350643427832508E-07  -4.438532254429157E-07
  -4.528196553070964E-07  -4.619672190671387E-07  -4.712995758703539E-07
  -4.808204587837305E-07  -4.905336762872062E-07  -5.004431137971115E-07
  -5.105527352203912E-07  -5.208665845402129E-07  -5.313887874336211E-07
  -5.421235529218586E-07  -5.530751750540315E-07  -5.642480346247856E-07
  -5.756466009266840E-07  -5.872754335379792E-07  -5.991391841465109E-07
  -6.112425984104360E-07  -6.235905178565603E-07  -6.361878818170107E-07
  -6.490397294050341E-07  -6.621512015307081E-07  -6.755275429573748E-07
  -6.891741043996172E-07  -7.030963446636072E-07  -7.172998328307141E-07
  -7.317902504851969E-07  -7.465733939869231E-07  -7.616551767899854E-07
  -7.770416318081613E-07  -7.927389138281586E-07  -8.087533019716133E-07
  -8.250912022068159E-07  -8.417591499111920E-07  -8.587638124855294E-07
  -8.761119920210362E-07  -8.938106280202596E-07  -9.118668001729840E-07
  -9.302877311881953E-07  -9.490807896832667E-07  -9.682534931314907E-07
  -9.878135108691850E-07  -1.007768667163510E-06  -1.028126944342290E-06
  -1.048896485987051E-06  -1.070085600190553E-06  -1.091702762880140E-06
  -1.113756621208222E-06  -1.136255997011254E-06  -1.159209890338579E-06
  -1.182627483052573E-06  -1.206518142501505E-06  -1.230891425266607E-06
  -1.255757080984825E-06  -1.281125056248804E-06  -1.307005498585661E-06
  -1.333408760516121E-06  -1.360345403695663E-06  -1.387826203139329E-06
  -1.415862151531858E-06  -1.444464463624917E-06  -1.473644580723140E-06
  -1.503414175260807E-06  -1.533785155470963E-06  -1.564769670148875E-06
  -1.596380113511698E-06  -1.628629130156342E-06  -1.661529620117454E-06
  -1.695094744027621E-06  -1.729337928381787E-06  -1.764272870908020E-06
  -1.799913546046796E-06  -1.836274210540944E-06  -1.873369409138542E-06
  -1.911213980410988E-06  -1.949823062688650E-06  -1.989212100116364E-06
  -2.029396848831318E-06  -2.070393383265702E-06  -2.112218102576689E-06
  -2.154887737206313E-06  -2.198419355573872E-06  -2.242830370903493E-06
  -2.288138548189685E-06  -2.334362011303527E-06  -2.381519250242488E-06
  -2.429629128526645E-06  -2.478710890744338E-06  -2.528784170250261E-06
  -2.579868997019060E-06  -2.631985805657561E-06  -2.685155443578911E-06
  -2.739399179341780E-06  -2.794738711158085E-06  -2.851196175572543E-06
  -2.908794156317574E-06  -2.967555693347089E-06  -3.027504292052765E-06
  -3.088663932666513E-06  -3.151059079852863E-06  -3.214714692495162E-06
  -3.279656233679430E-06  -3.345909680879949E-06  -3.413501536350558E-06
  -3.482458837725907E-06  -3.552809168836858E-06  -3.624580670744374E-06
  -3.697802052996281E-06  -3.772502605111493E-06  -3.848712208296150E-06
  -3.926461347396517E-06  -4.005781123093291E-06  -4.086703264342288E-06
  -4.169260141066402E-06  -4.253484777104018E-06  -4.339410863418918E-06
  -4.427072771577169E-06  -4.516505567496091E-06  -4.607745025471160E-06
  -4.700827642486121E-06  -4.795790652812253E-06  -4.892672042902567E-06
  -4.991510566586835E-06  -5.092345760573652E-06  -5.195217960265549E-06
  -5.300168315893749E-06  -5.407238808978686E-06  -5.516472269123207E-06
  -5.627912391144934E-06  -5.741603752554705E-06  -5.857591831388174E-06
  -5.975923024397566E-06  -6.096644665610953E-06  -6.219805045266491E-06
  -6.345453429129054E-06  -6.473640078197211E-06  -6.604416268808216E-06
  -6.737834313149168E-06  -6.873947580182554E-06  -7.012810516994486E-06
  -7.154478670574167E-06  -7.299008710033439E-06  -7.446458449275044E-06
  -7.596886870118952E-06  -7.750354145895789E-06  -7.906921665516893E-06
  -8.066652058030624E-06  -8.229609217674765E-06  -8.395858329434978E-06
  -8.565465895119549E-06  -8.738499759960988E-06  -8.915029139754862E-06
  -9.095124648547010E-06  -9.278858326879964E-06  -9.466303670610044E-06
  -9.657535660306573E-06  -9.852630791245006E-06  -1.005166710400589E-05
  -1.025472421569214E-05  -1.046188335177668E-05  -1.067322737859368E-05
  -1.088884083648608E-05  -1.110880997362262E-05  -1.133322278049820E-05
  -1.156216902513108E-05  -1.179574028897106E-05  -1.203403000353327E-05
  -1.227713348777170E-05  -1.252514798620798E-05  -1.277817270783027E-05
  -1.303630886577796E-05  -1.329965971782813E-05  -1.356833060769980E-05
  -1.384242900719262E-05  -1.412206455917679E-05  -1.440734912145148E-05
  -1.469839681148909E-05  -1.499532405208368E-05  -1.529824961792122E-05
  -1.560729468309091E-05  -1.592258286955605E-05  -1.624424029660421E-05
  -1.657239563129631E-05  -1.690718013993494E-05  -1.724872774057208E-05
  -1.759717505657799E-05  -1.795266147129198E-05  -1.831532918377709E-05
  -1.868532326570137E-05  -1.906279171936796E-05  -1.944788553691769E-05
  -1.984075876072744E-05  -2.024156854502874E-05  -2.065047521877086E-05
  -2.106764234975442E-05  -2.149323681005989E-05  -2.192742884279819E-05
  -2.237039213020969E-05  -2.282230386313872E-05  -2.328334481191184E-05
  -2.375369939864761E-05  -2.423355577102739E-05  -2.472310587755598E-05
  -2.522254554434321E-05  -2.573207455343599E-05  -2.625189672273323E-05
  -2.678221998751465E-05  -2.732325648361714E-05  -2.787522263229088E-05
  -2.843833922676995E-05  -2.901283152059131E-05  -2.959892931769869E-05
  -3.019686706436596E-05  -3.080688394297781E-05  -3.142922396770456E-05
  -3.206413608211028E-05  -3.271187425873217E-05  -3.337269760067172E-05
  -3.404687044523804E-05  -3.473466246968518E-05  -3.543634879908505E-05
  -3.615221011637983E-05  -3.688253277465703E-05  -3.762760891169340E-05
  -3.838773656681208E-05  -3.916321980010054E-05  -3.995436881403714E-05
  -4.076150007757397E-05  -4.158493645272721E-05  -4.242500732372396E-05
  -4.328204872875842E-05  -4.415640349440906E-05  -4.504842137277217E-05
  -4.595845918136460E-05  -4.688688094585327E-05  -4.783405804566743E-05
  -4.880036936255323E-05  -4.978620143212830E-05  -5.079194859849860E-05
  -5.181801317199788E-05  -5.286480559011461E-05  -5.393274458166881E-05
  -5.502225733430614E-05  -5.613377966537462E-05  -5.726775619625427E-05
  -5.842464053020761E-05  -5.960489543382304E-05  -6.080899302212321E-05
  -6.203741494741371E-05  -6.329065259194554E-05  -6.456920726446988E-05
  -6.587359040076372E-05  -6.720432376820546E-05  -6.856193967448422E-05
  -6.994698118052421E-05  -7.136000231771086E-05  -7.280156830950434E-05
  -7.427225579753114E-05  -7.577265307224150E-05  -7.730336030822705E-05
  -7.886498980429116E-05  -8.045816622837022E-05  -8.208352686740125E-05
  -8.374172188223751E-05  -8.543341456771264E-05  -8.715928161796046E-05
  -8.892001339709150E-05  -9.071631421533947E-05  -9.254890261078456E-05
  -9.441851163676898E-05  -9.632588915511755E-05  -9.827179813528156E-05
  -1.002570169595253E-04  -1.022823397342781E-04  -1.043485766077754E-04
  -1.064565540941160E-04  -1.086071154038658E-04  -1.108011207813387E-04
  -1.130394478486935E-04  -1.153229919569774E-04  -1.176526665442654E-04
  -1.200294035010287E-04  -1.224541535428895E-04  -1.249278865909008E-04
  -1.274515921595106E-04  -1.300262797523610E-04  -1.326529792660845E-04
  -1.353327414022559E-04  -1.380666380876655E-04  -1.408557629030814E-04
  -1.437012315206746E-04  -1.466041821502782E-04  -1.495657759946618E-04
  -1.525871977140014E-04  -1.556696558997334E-04  -1.588143835579788E-04
  -1.620226386027330E-04  -1.652957043590167E-04  -1.686348900761930E-04
  -1.720415314516505E-04  -1.755169911650665E-04  -1.790626594234611E-04
  -1.826799545172603E-04  -1.863703233875944E-04  -1.901352422050521E-04
  -1.939762169601274E-04  -1.978947840655907E-04  -2.018925109710311E-04
  -2.059709967898086E-04  -2.101318729386725E-04  -2.143768037902963E-04
  -2.187074873389996E-04  -2.231256558799096E-04  -2.276330767018468E-04
  -2.322315527942020E-04  -2.369229235680957E-04  -2.417090655921002E-04
  -2.465918933428266E-04  -2.515733599706666E-04  -2.566554580810100E-04
  -2.618402205312338E-04  -2.671297212437946E-04  -2.725260760357402E-04
  -2.780314434649817E-04  -2.836480256936536E-04  -2.893780693689149E-04
  -2.952238665215426E-04  -3.011877554826703E-04  -3.072721218190499E-04
  -3.134793992871990E-04  -3.198120708068228E-04  -3.262726694538946E-04
  -3.328637794737991E-04  -3.395880373149353E-04  -3.464481326831975E-04
  -3.534468096177529E-04  -3.605868675885517E-04  -3.678711626159996E-04
  -3.753026084132483E-04  -3.828841775515536E-04  -3.906189026491779E-04
  -3.985098775842969E-04  -4.065602587324118E-04  -4.147732662287435E-04
  -4.231521852561382E-04  -4.317003673589706E-04  -4.404212317835934E-04
  -4.493182668458526E-04  -4.583950313262313E-04  -4.676551558931607E-04
  -4.771023445550858E-04  -4.867403761418531E-04  -4.965731058160135E-04
  -5.066044666146601E-04  -5.168384710223928E-04  -5.272792125760575E-04
  -5.379308675018889E-04  -5.487976963857268E-04  -5.598840458769544E-04
  -5.711943504268519E-04  -5.827331340620553E-04  -5.945050121938396E-04
  -6.065146934639279E-04  -6.187669816275883E-04  -6.312667774747502E-04
  -6.440190807899289E-04  -6.570289923517206E-04  -6.703017159726824E-04
  -6.838425605804007E-04  -6.976569423405965E-04  -7.117503868230928E-04
  -7.261285312115324E-04  -7.407971265577067E-04  -7.557620400814228E-04
  -7.710292575168051E-04  -7.866048855059712E-04  -8.024951540410618E-04
  -8.187064189555596E-04  -8.352451644659382E-04  -8.521180057646219E-04
  -8.693316916653039E-04  -8.868931073016835E-04  -9.048092768807004E-04
  -9.230873664913562E-04  -9.417346869702561E-04  -9.607586968250041E-04
  -9.801670052166399E-04  -9.999673750022830E-04  -1.020167725839217E-03
  -1.040776137351643E-03  -1.061800852361383E-03  -1.083250280183800E-03
  -1.105132999990280E-03  -1.127457764238576E-03  -1.150233502172450E-03
  -1.173469323391932E-03  -1.197174521495688E-03  -1.221358577796902E-03
  -1.246031165114209E-03  -1.271202151639127E-03  -1.296881604881591E-03
  -1.323079795695123E-03  -1.349807202383281E-03  -1.377074514888990E-03
  -1.404892639068456E-03  -1.433272701051348E-03  -1.462226051688999E-03
  -1.491764271092423E-03  -1.521899173261897E-03  -1.552642810810032E-03
  -1.584007479780153E-03  -1.616005724561968E-03  -1.648650342906431E-03
  -1.681954391041850E-03  -1.715931188893239E-03  -1.750594325407039E-03
  -1.785957663983292E-03  -1.822035348017470E-03  -1.858841806554120E-03
  -1.896391760054671E-03  -1.934700226281581E-03  -1.973782526301297E-03
  -2.013654290608296E-03  -2.054331465372783E-03  -2.095830318814419E-03
  -2.138167447704695E-03  -2.181359784000496E-03  -2.225424601611569E-03
  -2.270379523304498E-03  -2.316242527746023E-03  -2.363031956688458E-03
  -2.410766522300090E-03  -2.459465314643504E-03  -2.509147809304762E-03
  -2.559833875176523E-03  -2.611543782398168E-03  -2.664298210456154E-03
  -2.718118256447730E-03  -2.773025443511424E-03  -2.829041729427510E-03
  -2.886189515392056E-03  -2.944491654967918E-03  -3.003971463216272E-03
  -3.064652726012337E-03  -3.126559709549032E-03  -3.189717170032268E-03
  -3.254150363571795E-03  -3.319885056271517E-03  -3.386947534523327E-03
  -3.455364615508496E-03  -3.525163657910863E-03  -3.596372572845985E-03
  -3.669019835010774E-03  -3.743134494057858E-03  -3.818746186199307E-03
  -3.895885146044326E-03  -3.974582218675550E-03  -4.054868871968893E-03
  -4.136777209161664E-03  -4.220339981674094E-03  -4.305590602189244E-03
  -4.392563157996664E-03  -4.481292424604905E-03  -4.571813879628422E-03
  -4.664163716954334E-03  -4.758378861194731E-03  -4.854496982430134E-03
  -4.952556511250136E-03  -5.052596654096994E-03  -5.154657408918495E-03
  -5.258779581136097E-03  -5.365004799934776E-03  -5.473375534881043E-03
  -5.583935112875751E-03  -5.696727735448304E-03  -5.811798496399217E-03
  -5.929193399798020E-03  -6.048959378343608E-03  -6.171144312094301E-03
  -6.295797047575072E-03  -6.422967417269491E-03  -6.552706259504076E-03
  -6.685065438733012E-03  -6.820097866231133E-03  -6.957857521203522E-03
  -7.098399472319817E-03  -7.241779899682175E-03  -7.388056117235042E-03
  -7.537286595626074E-03  -7.689530985526845E-03  -7.844850141422957E-03
  -8.003306145882556E-03  -8.164962334313131E-03  -8.329883320216128E-03
  -8.498135020949663E-03  -8.669784684009179E-03  -8.844900913836565E-03
  -9.023553699168272E-03  -9.205814440933336E-03  -9.391755980712036E-03
  -9.581452629766694E-03  -9.774980198655728E-03  -9.972416027443028E-03
  -1.017383901651411E-02  -1.037932965801146E-02  -1.058897006790135E-02
  -1.080284401868461E-02  -1.102103697276454E-02  -1.124363611648458E-02
  -1.147073039484959E-02  -1.170241054694391E-02  -1.193876914206065E-02
  -1.217990061655572E-02  -1.242590131144158E-02  -1.267686951073509E-02
  -1.293290548057482E-02  -1.319411150912268E-02  -1.346059194726589E-02
  -1.373245325013492E-02  -1.400980401945385E-02  -1.429275504673946E-02
  -1.458141935736612E-02  -1.487591225551337E-02  -1.517635137001430E-02
  -1.548285670112173E-02  -1.579555066821131E-02  -1.611455815843921E-02
  -1.644000657637428E-02  -1.677202589462306E-02  -1.711074870546790E-02
  -1.745631027353797E-02  -1.780884858953358E-02  -1.816850442502493E-02
  -1.853542138834590E-02  -1.890974598160527E-02  -1.929162765883656E-02
  -1.968121888530994E-02  -2.007867519802805E-02  -2.048415526742996E-02
  -2.089782096032621E-02  -2.131983740409014E-02  -2.175037305212920E-02
  -2.218959975066198E-02  -2.263769280682639E-02  -2.309483105814529E-02
  -2.356119694337585E-02  -2.403697657477000E-02  -2.452235981177333E-02
  -2.501754033619112E-02  -2.552271572884936E-02  -2.603808754778059E-02
  -2.656386140796375E-02  -2.710024706264917E-02  -2.764745848629848E-02
  -2.820571395917152E-02  -2.877523615359230E-02  -2.935625222192582E-02
  -2.994899388630027E-02  -3.055369753010696E-02  -3.117060429131322E-02
  -3.179996015762293E-02  -3.244201606352101E-02  -3.309702798923681E-02
  -3.376525706166492E-02  -3.444696965727956E-02  -3.514243750708218E-02
  -3.585193780362016E-02  -3.657575331011668E-02  -3.731417247175194E-02
  -3.806748952913742E-02  -3.883600463402379E-02  -3.962002396728610E-02
  -4.041985985922825E-02  -4.123583091225239E-02  -4.206826212593616E-02
  -4.291748502456445E-02  -4.378383778716086E-02  -4.466766538006790E-02
  -4.556931969212067E-02  -4.648915967246554E-02  -4.742755147107086E-02
  -4.838486858198220E-02  -4.936149198937059E-02  -5.035781031642781E-02
  -5.137421997715953E-02  -5.241112533113131E-02  -5.346893884122070E-02
  -5.454808123443115E-02  -5.564898166582270E-02  -5.677207788561830E-02
  -5.791781640954093E-02  -5.908665269244132E-02  -6.027905130527684E-02
  -6.149548611549867E-02  -6.273644047091106E-02  -6.400240738706350E-02
  -6.529388973823828E-02  -6.661140045209775E-02  -6.795546270805533E-02
  -6.932661013943413E-02  -7.072538703948361E-02  -7.215234857131503E-02
  -7.360806098182811E-02  -7.509310181969574E-02  -7.660806015747532E-02
  -7.815353681791810E-02  -7.973014460454649E-02  -8.133850853657078E-02
  -8.297926608821665E-02  -8.465306743254025E-02  -8.636057568979776E-02
  -8.810246718044949E-02  -8.987943168287001E-02  -9.169217269584071E-02
  -9.354140770590036E-02  -9.542786845963008E-02  -9.735230124094719E-02
  -9.931546715349121E-02  -1.013181424081705E-01  -1.033611186159544E-01
  -1.054452030859853E-01  -1.075712191290887E-01  -1.097400063667613E-01
  -1.119524210457121E-01  -1.142093363580353E-01  -1.165116427670964E-01
  -1.188602483392019E-01  -1.212560790811349E-01  -1.237000792836311E-01
  -1.261932118708711E-01  -1.287364587560644E-01  -1.313308212031977E-01
  -1.339773201950235E-01  -1.366769968073556E-01  -1.394309125897496E-01
  -1.422401499526295E-01  -1.451058125609318E-01  -1.480290257343311E-01
  -1.510109368541109E-01  -1.540527157767386E-01  -1.571555552542043E-01
  -1.603206713611755E-01  -1.635493039290253E-01  -1.668427169867750E-01
  -1.702021992090006E-01  -1.736290643707414E-01  -1.771246518094485E-01
  -1.806903268940003E-01  -1.843274815008175E-01  -1.880375344970856E-01
  -1.918219322311175E-01  -1.956821490298419E-01  -1.996196877034350E-01
  -2.036360800570775E-01  -2.077328874098262E-01  -2.119117011205749E-01
  -2.161741431210698E-01  -2.205218664559309E-01  -2.249565558296388E-01
  -2.294799281604012E-01  -2.340937331408341E-01  -2.387997538053603E-01
  -2.435998071042202E-01  -2.484957444839726E-01  -2.534894524743493E-01
  -2.585828532813098E-01  -2.637779053861182E-01  -2.690766041502634E-01
  -2.744809824259927E-01  -2.799931111722379E-01  -2.856151000756716E-01
  -2.913490981766098E-01  -2.971972944994551E-01  -3.031619186873448E-01
  -3.092452416406289E-01  -3.154495761588004E-01  -3.217772775854221E-01
  -3.282307444556049E-01  -3.348124191455237E-01  -3.415247885234306E-01
  -3.483703846015829E-01  -3.553517851884556E-01  -3.624716145405566E-01
  -3.697325440131376E-01  -3.771372927089977E-01  -3.846886281245666E-01
  -3.923893667923644E-01  -4.002423749188902E-01  -4.082505690169158E-01
  -4.164169165310978E-01  -4.247444364557504E-01  -4.332361999435265E-01
  -4.418953309037135E-01  -4.507250065887082E-01  -4.597284581671964E-01
  -4.689089712824362E-01  -4.782698865939592E-01  -4.878146003008845E-01
  -4.975465646449478E-01  -5.074692883912024E-01  -5.175863372842704E-01
  -5.279013344778284E-01  -5.384179609349392E-01  -5.491399557966614E-01
  -5.600711167162152E-01  -5.712153001558489E-01  -5.825764216433602E-01
  -5.941584559850500E-01  -6.059654374317411E-01  -6.180014597942309E-01
  -6.302706765044135E-01  -6.427773006180540E-01  -6.555256047549820E-01
  -6.685199209722501E-01  -6.817646405655333E-01  -6.952642137938232E-01
  -7.090231495221498E-01  -7.230460147768679E-01  -7.373374342076342E-01
  -7.519020894500068E-01  -7.667447183822026E-01  -7.818701142692480E-01
  -7.972831247873912E-01  -8.129886509212942E-01  -8.289916457261084E-01
  -8.452971129462128E-01  -8.619101054818687E-01  -8.788357236947210E-01
  -8.960791135425750E-01  -9.136454645334020E-01  -9.315400074880820E-01
  -9.497680121008635E-01  -9.683347842859747E-01  -9.872456632983833E-01
  -1.006506018615968E+00  -1.026121246569974E+00  -1.046096766709895E+00
  -1.066438017888356E+00  -1.087150454050948E+00  -1.108239539715272E+00
  -1.129710745122805E+00  -1.151569541046477E+00  -1.173821393236206E+00
  -1.196471756483784E+00  -1.219526068287888E+00  -1.242989742099160E+00
  -1.266868160124525E+00  -1.291166665669148E+00  -1.315890554993620E+00
  -1.341045068663116E+00  -1.366635382364548E+00  -1.392666597166740E+00
  -1.419143729198016E+00  -1.446071698714589E+00  -1.473455318532435E+00
  -1.501299281794455E+00  -1.529608149043906E+00  -1.558386334574330E+00
  -1.587638092025438E+00  -1.617367499193562E+00  -1.647578442024713E+00
  -1.678274597757497E+00  -1.709459417182548E+00  -1.741136105984576E+00
  -1.773307605132576E+00  -1.805976570283339E+00  -1.839145350163008E+00
  -1.872815963891264E+00  -1.906990077212382E+00  -1.941668977597578E+00
  -1.976853548183037E+00  -2.012544240508297E+00  -2.048741046020119E+00
  -2.085443466307546E+00  -2.122650482034649E+00  -2.160360520538648E+00
  -2.198571422062116E+00  -2.237280404589809E+00  -2.276484027262380E+00
  -2.316178152341445E+00  -2.356357905703017E+00  -2.397017635839274E+00
  -2.438150871351858E+00  -2.479750276923905E+00  -2.521807607761958E+00
  -2.564313662504025E+00  -2.607258234595142E+00  -2.650630062137943E+00
  -2.694416776232138E+00  -2.738604847824262E+00  -2.783179533096900E+00
  -2.828124817435443E+00  -2.873423358020123E+00  -2.919056425101306E+00
  -2.965003842027665E+00  -3.011243924109120E+00  -3.057753416409775E+00
  -3.104507430580634E+00  -3.151479380857409E+00  -3.198640919365451E+00
  -3.245961870891972E+00  -3.293410167304667E+00  -3.340951781816690E+00
  -3.388550663319620E+00  -3.436168671029403E+00  -3.483765509714920E+00
  -3.531298665804885E+00  -3.578723344696376E+00  -3.625992409617409E+00
  -3.673056322426124E+00  -3.719863086761457E+00  -3.766358193993188E+00
  -3.812484572454069E+00  -3.858182540472774E+00  -3.903389763763573E+00
  -3.948041217767132E+00  -3.992069155576112E+00  -4.035403082119850E+00
  -4.077969735322986E+00  -4.119693074994876E+00  -4.160494280248185E+00
  -4.200291756287013E+00  -4.239001151446381E+00  -4.276535385406003E+00
  -4.312804689540910E+00  -4.347716660410327E+00  -4.381176327422338E+00
  -4.413086235746346E+00  -4.443346545576067E+00  -4.471855148873445E+00
  -4.498507804746581E+00  -4.523198294632906E+00  -4.545818598470542E+00
  -4.566259093046064E+00  -4.584408773704100E+00  -4.600155500592871E+00
  -4.613386270598617E+00  -4.623987516089635E+00  -4.631845431546584E+00
  -4.636846329098056E+00  -4.638877023908487E+00  -4.637825250277385E+00
  -4.633580109203762E+00  -4.626032548045773E+00  -4.615075872761906E+00
  -4.600606293054720E+00  -4.582523500550377E+00  -4.560731279934878E+00
  -4.535138152730479E+00  -4.505658053131113E+00  -4.472211035023177E+00
  -4.434724008996309E+00  -4.393131507796516E+00  -4.347376478290848E+00
  -4.297411097597007E+00  -4.243197610583284E+00  -4.184709185462418E+00
  -4.121930783687933E+00  -4.054860039812499E+00  -3.983508146385720E+00
  -3.907900738353099E+00  -3.828078770770280E+00  -3.744099382967653E+00
  -3.656036741591447E+00  -3.563982854210863E+00  -3.468048344418301E+00
  -3.368363178565017E+00  -3.265077333470111E+00  -3.158361393622385E+00
  -3.048407065565730E+00  -2.935427596327029E+00  -2.819658081917729E+00
  -2.701355651125355E+00  -2.580799509020196E+00  -2.458290823848159E+00
  -2.334152440277741E+00  -2.208728401338261E+00  -2.082383260846555E+00
  -1.955501167699870E+00  -1.828484703143745E+00  -1.701753452042553E+00
  -1.575742289332253E+00  -1.450899363271468E+00  -1.327683757888389E+00
  -1.206562818220889E+00  -1.088009123643858E+00  -9.724970968686306E-01
  -8.604992391901329E-01  -7.524819863688338E-01  -6.489011843026579E-01
  -5.501971895182995E-01  -4.567896066551826E-01  -3.690716837070322E-01
  -2.874043960143484E-01  -2.121102620655254E-01  -1.434669482707184E-01
  -8.170073623195760E-02  -2.697994485125008E-02   2.059157890078409E-02
   6.098076239969297E-02   9.423123745526971E-02   1.204687020333119E-01
   1.399054837549572E-01   1.528440381173816E-01   1.596790737449726E-01
   1.608979528743042E-01   1.570789676891289E-01   1.488870420352724E-01
   1.370663534175882E-01   1.224293119049153E-01   1.058412704208545E-01
   8.820027448319989E-02   7.041108813297875E-02   5.335265560949197E-02
   3.783807393829776E-02   2.456605824745658E-02   1.406277713705836E-02
   6.612817342808847E-03   2.177902793405418E-03   3.018410780968646E-04
  -5.629073970095142E-15   0.000000000000000E+00   0.000000000000000E+00
   0.000000000000000E+00   0.000000000000000E+00   0.000000000000000E+00
   0.000000000000000E+00   0.000000000000000E+00   0.000000000000000E+00
   0.000000000000000E+00   0.000000000000000E+00   0.000000000000000E+00
   0.000000000000000E+00   0.000000000000000E+00   0.000000000000000E+00
   0.000000000000000E+00   0.000000000000000E+00   0.000000000000000E+00
   0.000000000000000E+00   0.000000000000000E+00   0.000000000000000E+00
   0.000000000000000E+00   0.000000000000000E+00   0.000000000000000E+00
   0.000000000000000E+00   0.000000000000000E+00   0.000000000000000E+00
   0.000000000000000E+00   0.000000000000000E+00   0.000000000000000E+00
   0.000000000000000E+00   0.000000000000000E+00   0.000000000000000E+00
   0.000000000000000E+00   0.000000000000000E+00   0.000000000000000E+00
   0.000000000000000E+00   0.000000000000000E+00   0.000000000000000E+00
   0.000000000000000E+00   0.000000000000000E+00   0.000000000000000E+00
   0.000000000000000E+00   0.000000000000000E+00   0.000000000000000E+00
   0.000000000000000E+00   0.000000000000000E+00   0.000000000000000E+00
   0.000000000000000E+00   0.000000000000000E+00   0.000000000000000E+00
   0.000000000000000E+00   0.000000000000000E+00   0.000000000000000E+00
   0.000000000000000E+00   0.000000000000000E+00   0.000000000000000E+00
   0.000000000000000E+00   0.000000000000000E+00   0.000000000000000E+00
   0.000000000000000E+00   0.000000000000000E+00   0.000000000000000E+00
   0.000000000000000E+00   0.000000000000000E+00   0.000000000000000E+00
   0.000000000000000E+00   0.000000000000000E+00   0.000000000000000E+00
   0.000000000000000E+00   0.000000000000000E+00   0.000000000000000E+00
   0.000000000000000E+00   0.000000000000000E+00   0.000000000000000E+00
   0.000000000000000E+00   0.000000000000000E+00   0.000000000000000E+00
   0.000000000000000E+00   0.000000000000000E+00   0.000000000000000E+00
   0.000000000000000E+00   0.000000000000000E+00   0.000000000000000E+00
   0.000000000000000E+00   0.000000000000000E+00   0.000000000000000E+00
   0.000000000000000E+00   0.000000000000000E+00   0.000000000000000E+00
   0.000000000000000E+00   0.000000000000000E+00   0.000000000000000E+00
   0.000000000000000E+00   0.000000000000000E+00   0.000000000000000E+00
   0.000000000000000E+00   0.000000000000000E+00   0.000000000000000E+00
   0.000000000000000E+00   0.000000000000000E+00   0.000000000000000E+00
   0.000000000000000E+00   0.000000000000000E+00   0.000000000000000E+00
   0.000000000000000E+00   0.000000000000000E+00   0.000000000000000E+00
   0.000000000000000E+00   0.000000000000000E+00   0.000000000000000E+00
   0.000000000000000E+00   0.000000000000000E+00   0.000000000000000E+00
   0.000000000000000E+00   0.000000000000000E+00   0.000000000000000E+00
   0.000000000000000E+00   0.000000000000000E+00   0.000000000000000E+00
   0.000000000000000E+00   0.000000000000000E+00   0.000000000000000E+00
   0.000000000000000E+00   0.000000000000000E+00   0.000000000000000E+00
   0.000000000000000E+00   0.000000000000000E+00   0.000000000000000E+00
   0.000000000000000E+00   0.000000000000000E+00   0.000000000000000E+00
   0.000000000000000E+00   0.000000000000000E+00   0.000000000000000E+00
   0.000000000000000E+00   0.000000000000000E+00   0.000000000000000E+00
   0.000000000000000E+00   0.000000000000000E+00   0.000000000000000E+00
   0.000000000000000E+00   0.000000000000000E+00   0.000000000000000E+00
   0.000000000000000E+00   0.000000000000000E+00   0.000000000000000E+00
   0.000000000000000E+00   0.000000000000000E+00   0.000000000000000E+00
   0.000000000000000E+00   0.000000000000000E+00   0.000000000000000E+00
   0.000000000000000E+00   0.000000000000000E+00   0.000000000000000E+00
   0.000000000000000E+00   0.000000000000000E+00   0.000000000000000E+00
   0.000000000000000E+00   0.000000000000000E+00   0.000000000000000E+00
   0.000000000000000E+00   0.000000000000000E+00   0.000000000000000E+00
   0.000000000000000E+00   0.000000000000000E+00   0.000000000000000E+00
   0.000000000000000E+00   0.000000000000000E+00   0.000000000000000E+00
   0.000000000000000E+00   0.000000000000000E+00   0.000000000000000E+00
   0.000000000000000E+00   0.000000000000000E+00   0.000000000000000E+00
   0.000000000000000E+00   0.000000000000000E+00   0.000000000000000E+00
   0.000000000000000E+00   0.000000000000000E+00   0.000000000000000E+00
   0.000000000000000E+00   0.000000000000000E+00   0.000000000000000E+00
   0.000000000000000E+00   0.000000000000000E+00   0.000000000000000E+00
   0.000000000000000E+00   0.000000000000000E+00   0.000000000000000E+00
   0.000000000000000E+00   0.000000000000000E+00   0.000000000000000E+00
   0.000000000000000E+00   0.000000000000000E+00   0.000000000000000E+00
   0.000000000000000E+00   0.000000000000000E+00   0.000000000000000E+00
   0.000000000000000E+00   0.000000000000000E+00   0.000000000000000E+00
   0.000000000000000E+00   0.000000000000000E+00   0.000000000000000E+00
   0.000000000000000E+00   0.000000000000000E+00   0.000000000000000E+00
   0.000000000000000E+00   0.000000000000000E+00   0.000000000000000E+00
   0.000000000000000E+00   0.000000000000000E+00   0.000000000000000E+00
   0.000000000000000E+00   0.000000000000000E+00   0.000000000000000E+00
   0.000000000000000E+00   0.000000000000000E+00   0.000000000000000E+00
   0.000000000000000E+00   0.000000000000000E+00   0.000000000000000E+00
   0.000000000000000E+00   0.000000000000000E+00   0.000000000000000E+00
   0.000000000000000E+00   0.000000000000000E+00   0.000000000000000E+00
   0.000000000000000E+00   0.000000000000000E+00   0.000000000000000E+00
   0.000000000000000E+00   0.000000000000000E+00   0.000000000000000E+00
   0.000000000000000E+00   0.000000000000000E+00   0.000000000000000E+00
   0.000000000000000E+00   0.000000000000000E+00   0.000000000000000E+00
   0.000000000000000E+00   0.000000000000000E+00   0.000000000000000E+00
   0.000000000000000E+00   0.000000000000000E+00   0.000000000000000E+00
   0.000000000000000E+00   0.000000000000000E+00   0.000000000000000E+00
   0.000000000000000E+00   0.000000000000000E+00   0.000000000000000E+00
   0.000000000000000E+00   0.000000000000000E+00   0.000000000000000E+00
   0.000000000000000E+00   0.000000000000000E+00   0.000000000000000E+00
   0.000000000000000E+00   0.000000000000000E+00   0.000000000000000E+00
   0.000000000000000E+00   0.000000000000000E+00   0.000000000000000E+00
   0.000000000000000E+00   0.000000000000000E+00   0.000000000000000E+00
   0.000000000000000E+00   0.000000000000000E+00   0.000000000000000E+00
   0.000000000000000E+00   0.000000000000000E+00   0.000000000000000E+00
   0.000000000000000E+00   0.000000000000000E+00   0.000000000000000E+00
   0.000000000000000E+00   0.000000000000000E+00   0.000000000000000E+00
   0.000000000000000E+00   0.000000000000000E+00   0.000000000000000E+00
   0.000000000000000E+00   0.000000000000000E+00   0.000000000000000E+00
   0.000000000000000E+00   0.000000000000000E+00   0.000000000000000E+00
   0.000000000000000E+00   0.000000000000000E+00   0.000000000000000E+00
   0.000000000000000E+00   0.000000000000000E+00   0.000000000000000E+00
   0.000000000000000E+00   0.000000000000000E+00   0.000000000000000E+00
   0.000000000000000E+00   0.000000000000000E+00   0.000000000000000E+00
   0.000000000000000E+00   0.000000000000000E+00   0.000000000000000E+00
   0.000000000000000E+00   0.000000000000000E+00   0.000000000000000E+00
   0.000000000000000E+00   0.000000000000000E+00   0.000000000000000E+00
   0.000000000000000E+00   0.000000000000000E+00   0.000000000000000E+00
   0.000000000000000E+00   0.000000000000000E+00   0.000000000000000E+00
   0.000000000000000E+00   0.000000000000000E+00   0.000000000000000E+00
   0.000000000000000E+00   0.000000000000000E+00   0.000000000000000E+00
   0.000000000000000E+00   0.000000000000000E+00   0.000000000000000E+00
   0.000000000000000E+00   0.000000000000000E+00   0.000000000000000E+00
   0.000000000000000E+00   0.000000000000000E+00   0.000000000000000E+00
   0.000000000000000E+00   0.000000000000000E+00   0.000000000000000E+00
   0.000000000000000E+00   0.000000000000000E+00   0.000000000000000E+00
   0.000000000000000E+00   0.000000000000000E+00   0.000000000000000E+00
   0.000000000000000E+00   0.000000000000000E+00   0.000000000000000E+00
   0.000000000000000E+00   0.000000000000000E+00   0.000000000000000E+00
   0.000000000000000E+00   0.000000000000000E+00   0.000000000000000E+00
   0.000000000000000E+00   0.000000000000000E+00   0.000000000000000E+00
   0.000000000000000E+00   0.000000000000000E+00   0.000000000000000E+00
   0.000000000000000E+00   0.000000000000000E+00   0.000000000000000E+00
   0.000000000000000E+00   0.000000000000000E+00   0.000000000000000E+00
   0.000000000000000E+00   0.000000000000000E+00   0.000000000000000E+00
   0.000000000000000E+00   0.000000000000000E+00   0.000000000000000E+00
   0.000000000000000E+00   0.000000000000000E+00   0.000000000000000E+00
   0.000000000000000E+00   0.000000000000000E+00   0.000000000000000E+00
   0.000000000000000E+00   0.000000000000000E+00   0.000000000000000E+00
   0.000000000000000E+00   0.000000000000000E+00   0.000000000000000E+00
   0.000000000000000E+00   0.000000000000000E+00   0.000000000000000E+00
   0.000000000000000E+00   0.000000000000000E+00   0.000000000000000E+00
   0.000000000000000E+00   0.000000000000000E+00   0.000000000000000E+00
   0.000000000000000E+00
    </PP_BETA.2>
    <PP_DIJ columns="2" rows="2">
  0.758931263222768       0.000000000000000E+000
  0.000000000000000E+000  0.312163368503592     
    </PP_DIJ>
  </PP_NONLOCAL>
  <PP_PSWFC>
    <PP_CHI.1 size="1525" index="1" label="3S" l="0" occupation="2.00000000000000" n="1" cutoff_radius="2.00000000000000" ultrasoft_cutoff_radius="2.00000000000000">
   7.300123989458302E-06   7.373491455327054E-06   7.447596276487533E-06
   7.522445863483671E-06   7.598047701336579E-06   7.674409350293101E-06
   7.751538446581814E-06   7.829442703176683E-06   7.908129910568347E-06
   7.987607937543178E-06   8.067884731970158E-06   8.148968321595693E-06
   8.230866814846362E-06   8.313588401639808E-06   8.397141354203715E-06
   8.481534027903056E-06   8.566774862075591E-06   8.652872380875834E-06
   8.739835194127490E-06   8.827671998184448E-06   8.916391576800381E-06
   9.006002802007170E-06   9.096514635002093E-06   9.187936127043979E-06
   9.280276420358299E-06   9.373544749051442E-06   9.467750440034091E-06
   9.562902913953959E-06   9.659011686137830E-06   9.756086367543117E-06
   9.854136665718958E-06   9.953172385776997E-06   1.005320343137190E-05
   1.015423980569167E-05   1.025629161245808E-05   1.035936905693698E-05
   1.046348244695884E-05   1.056864219394955E-05   1.067485881397159E-05
   1.078214292877562E-05   1.089050526686267E-05   1.099995666455700E-05
   1.111050806708974E-05   1.122217052969344E-05   1.133495521870758E-05
   1.144887341269523E-05   1.156393650357089E-05   1.168015599773972E-05
   1.179754351724819E-05   1.191611080094624E-05   1.203586970566126E-05
   1.215683220738371E-05   1.227901040246479E-05   1.240241650882605E-05
   1.252706286718118E-05   1.265296194227013E-05   1.278012632410556E-05
   1.290856872923186E-05   1.303830200199683E-05   1.316933911583613E-05
   1.330169317457060E-05   1.343537741371671E-05   1.357040520181001E-05
   1.370679004174217E-05   1.384454557211114E-05   1.398368556858507E-05
   1.412422394527987E-05   1.426617475615065E-05   1.440955219639714E-05
   1.455437060388321E-05   1.470064446057064E-05   1.484838839396737E-05
   1.499761717859023E-05   1.514834573744247E-05   1.530058914350596E-05
   1.545436262124861E-05   1.560968154814676E-05   1.576656145622300E-05
   1.592501803359932E-05   1.608506712606599E-05   1.624672473866611E-05
   1.641000703729618E-05   1.657493035032267E-05   1.674151117021483E-05
   1.690976615519400E-05   1.707971213089950E-05   1.725136609207111E-05
   1.742474520424857E-05   1.759986680548824E-05   1.777674840809679E-05
   1.795540770038258E-05   1.813586254842437E-05   1.831813099785805E-05
   1.850223127568118E-05   1.868818179207572E-05   1.887600114224902E-05
   1.906570810829339E-05   1.925732166106436E-05   1.945086096207773E-05
   1.964634536542575E-05   1.984379441971256E-05   2.004322787000904E-05
   2.024466565982737E-05   2.044812793311536E-05   2.065363503627091E-05
   2.086120752017662E-05   2.107086614225497E-05   2.128263186854392E-05
   2.149652587579376E-05   2.171256955358461E-05   2.193078450646551E-05
   2.215119255611481E-05   2.237381574352246E-05   2.259867633119403E-05
   2.282579680537705E-05   2.305519987830959E-05   2.328690849049155E-05
   2.352094581297871E-05   2.375733524969991E-05   2.399610043979739E-05
   2.423726525999079E-05   2.448085382696475E-05   2.472689049978068E-05
   2.497539988231266E-05   2.522640682570787E-05   2.547993643087171E-05
   2.573601405097793E-05   2.599466529400399E-05   2.625591602529180E-05
   2.651979237013428E-05   2.678632071638803E-05   2.705552771711207E-05
   2.732744029323309E-05   2.760208563623775E-05   2.787949121089167E-05
   2.815968475798609E-05   2.844269429711183E-05   2.872854812946132E-05
   2.901727484065887E-05   2.930890330361906E-05   2.960346268143413E-05
   2.990098243029042E-05   3.020149230241391E-05   3.050502234904547E-05
   3.081160292344606E-05   3.112126468393204E-05   3.143403859694104E-05
   3.174995594012871E-05   3.206904830549642E-05   3.239134760255046E-05
   3.271688606149311E-05   3.304569623644569E-05   3.337781100870394E-05
   3.371326359002625E-05   3.405208752595482E-05   3.439431669917024E-05
   3.473998533287985E-05   3.508912799423994E-05   3.544177959781271E-05
   3.579797540905765E-05   3.615775104785811E-05   3.652114249208338E-05
   3.688818608118648E-05   3.725891851983807E-05   3.763337688159710E-05
   3.801159861261801E-05   3.839362153539556E-05   3.877948385254709E-05
   3.916922415063271E-05   3.956288140401407E-05   3.996049497875191E-05
   4.036210463654249E-05   4.076775053869403E-05   4.117747325014285E-05
   4.159131374350969E-05   4.200931340319728E-05   4.243151402952863E-05
   4.285795784292723E-05   4.328868748813907E-05   4.372374603849715E-05
   4.416317700022892E-05   4.460702431680688E-05   4.505533237334306E-05
   4.550814600102746E-05   4.596551048161126E-05   4.642747155193513E-05
   4.689407540850286E-05   4.736536871210109E-05   4.784139859246543E-05
   4.832221265299354E-05   4.880785897550537E-05   4.929838612505166E-05
   4.979384315477020E-05   5.029427961079143E-05   5.079974553719301E-05
   5.131029148100424E-05   5.182596849726079E-05   5.234682815411050E-05
   5.287292253797002E-05   5.340430425873355E-05   5.394102645503393E-05
   5.448314279955656E-05   5.503070750440670E-05   5.558377532653076E-05
   5.614240157319207E-05   5.670664210750173E-05   5.727655335400485E-05
   5.785219230432310E-05   5.843361652285404E-05   5.902088415252759E-05
   5.961405392062034E-05   6.021318514462832E-05   6.081833773819897E-05
   6.142957221712242E-05   6.204694970538323E-05   6.267053194127278E-05
   6.330038128356335E-05   6.393656071774390E-05   6.457913386231883E-05
   6.522816497516983E-05   6.588371895998178E-05   6.654586137273312E-05
   6.721465842825171E-05   6.789017700683610E-05   6.857248466094397E-05
   6.926164962194734E-05   6.995774080695580E-05   7.066082782570823E-05
   7.137098098753394E-05   7.208827130838375E-05   7.281277051793166E-05
   7.354455106674788E-05   7.428368613354399E-05   7.503024963249089E-05
   7.578431622061044E-05   7.654596130524109E-05   7.731526105157890E-05
   7.809229239029406E-05   7.887713302522396E-05   7.966986144114406E-05
   8.047055691161599E-05   8.127929950691553E-05   8.209617010203952E-05
   8.292125038479325E-05   8.375462286395983E-05   8.459637087755084E-05
   8.544657860114038E-05   8.630533105628290E-05   8.717271411901528E-05
   8.804881452844466E-05   8.893371989542247E-05   8.982751871130563E-05
   9.073030035680606E-05   9.164215511092873E-05   9.256317415999953E-05
   9.349344960678443E-05   9.443307447969938E-05   9.538214274211402E-05
   9.634074930174779E-05   9.730899002016091E-05   9.828696172234064E-05
   9.927476220638396E-05   1.002724902532777E-04   1.012802456367768E-04
   1.022981291333820E-04   1.033262425324172E-04   1.043646886462091E-04
   1.054135713203682E-04   1.064729954441741E-04   1.075430669610643E-04
   1.086238928792289E-04   1.097155812823112E-04   1.108182413402170E-04
   1.119319833200312E-04   1.130569185970451E-04   1.141931596658942E-04
   1.153408201518076E-04   1.165000148219713E-04   1.176708595970045E-04
   1.188534715625524E-04   1.200479689809947E-04   1.212544713032725E-04
   1.224730991808337E-04   1.237039744776980E-04   1.249472202826437E-04
   1.262029609215173E-04   1.274713219696661E-04   1.287524302644959E-04
   1.300464139181550E-04   1.313534023303466E-04   1.326735262012678E-04
   1.340069175446811E-04   1.353537097011156E-04   1.367140373512015E-04
   1.380880365291381E-04   1.394758446362988E-04   1.408776004549702E-04
   1.422934441622321E-04   1.437235173439744E-04   1.451679630090569E-04
   1.466269256036101E-04   1.481005510254808E-04   1.495889866388218E-04
   1.510923812888293E-04   1.526108853166275E-04   1.541446505743036E-04
   1.556938304400930E-04   1.572585798337179E-04   1.588390552318800E-04
   1.604354146839081E-04   1.620478178275643E-04   1.636764259050082E-04
   1.653214017789212E-04   1.669829099487938E-04   1.686611165673763E-04
   1.703561894572943E-04   1.720682981278320E-04   1.737976137918833E-04
   1.755443093830743E-04   1.773085595730572E-04   1.790905407889779E-04
   1.808904312311199E-04   1.827084108907247E-04   1.845446615679920E-04
   1.863993668902598E-04   1.882727123303691E-04   1.901648852252114E-04
   1.920760747944634E-04   1.940064721595096E-04   1.959562703625554E-04
   1.979256643859328E-04   1.999148511715984E-04   2.019240296408299E-04
   2.039534007141187E-04   2.060031673312630E-04   2.080735344716626E-04
   2.101647091748184E-04   2.122769005610371E-04   2.144103198523442E-04
   2.165651803936084E-04   2.187416976738762E-04   2.209400893479224E-04
   2.231605752580173E-04   2.254033774559115E-04   2.276687202250434E-04
   2.299568301029682E-04   2.322679359040131E-04   2.346022687421608E-04
   2.369600620541612E-04   2.393415516228783E-04   2.417469756008692E-04
   2.441765745342007E-04   2.466305913865061E-04   2.491092715632834E-04
   2.516128629364367E-04   2.541416158690671E-04   2.566957832405090E-04
   2.592756204716211E-04   2.618813855503299E-04   2.645133390574308E-04
   2.671717441926480E-04   2.698568668009579E-04   2.725689753991740E-04
   2.753083412028026E-04   2.780752381531655E-04   2.808699429447966E-04
   2.836927350531147E-04   2.865438967623735E-04   2.894237131938920E-04
   2.923324723345694E-04   2.952704650656876E-04   2.982379851920009E-04
   3.012353294711202E-04   3.042627976431920E-04   3.073206924608750E-04
   3.104093197196191E-04   3.135289882882481E-04   3.166800101398500E-04
   3.198627003829780E-04   3.230773772931644E-04   3.263243623447525E-04
   3.296039802430476E-04   3.329165589567913E-04   3.362624297509633E-04
   3.396419272199109E-04   3.430553893208140E-04   3.465031574074833E-04
   3.499855762645034E-04   3.535029941417125E-04   3.570557627890354E-04
   3.606442374916598E-04   3.642687771055732E-04   3.679297440934532E-04
   3.716275045609172E-04   3.753624282931411E-04   3.791348887918420E-04
   3.829452633126342E-04   3.867939329027625E-04   3.906812824392109E-04
   3.946077006671987E-04   3.985735802390606E-04   4.025793177535186E-04
   4.066253137953504E-04   4.107119729754532E-04   4.148397039713139E-04
   4.190089195678830E-04   4.232200366988623E-04   4.274734764884060E-04
   4.317696642932411E-04   4.361090297452123E-04   4.404920067942533E-04
   4.449190337517922E-04   4.493905533345903E-04   4.539070127090255E-04
   4.584688635358179E-04   4.630765620152065E-04   4.677305689325793E-04
   4.724313497045620E-04   4.771793744255732E-04   4.819751179148442E-04
   4.868190597639121E-04   4.917116843845922E-04   4.966534810574310E-04
   5.016449439806475E-04   5.066865723195683E-04   5.117788702565551E-04
   5.169223470414391E-04   5.221175170424592E-04   5.273648997977150E-04
   5.326650200671358E-04   5.380184078849726E-04   5.434255986128177E-04
   5.488871329931574E-04   5.544035572034657E-04   5.599754229108386E-04
   5.656032873271793E-04   5.712877132649374E-04   5.770292691934131E-04
   5.828285292956208E-04   5.886860735257305E-04   5.946024876670829E-04
   6.005783633907922E-04   6.066142983149343E-04   6.127108960643324E-04
   6.188687663309438E-04   6.250885249348537E-04   6.313707938858840E-04
   6.377162014458192E-04   6.441253821912603E-04   6.505989770771101E-04
   6.571376335006983E-04   6.637420053665524E-04   6.704127531518155E-04
   6.771505439723280E-04   6.839560516493700E-04   6.908299567770781E-04
   6.977729467905396E-04   7.047857160345708E-04   7.118689658331882E-04
   7.190234045597784E-04   7.262497477079754E-04   7.335487179632469E-04
   7.409210452752094E-04   7.483674669306596E-04   7.558887276273523E-04
   7.634855795485120E-04   7.711587824380973E-04   7.789091036768252E-04
   7.867373183589568E-04   7.946442093698587E-04   8.026305674643439E-04
   8.106971913457990E-04   8.188448877461127E-04   8.270744715064054E-04
   8.353867656585692E-04   8.437826015076371E-04   8.522628187149738E-04
   8.608282653823039E-04   8.694797981365902E-04   8.782182822157659E-04
   8.870445915553280E-04   8.959596088758028E-04   9.049642257710925E-04
   9.140593427977140E-04   9.232458695649303E-04   9.325247248257951E-04
   9.418968365691137E-04   9.513631421123246E-04   9.609245881953258E-04
   9.705821310752364E-04   9.803367366221214E-04   9.901893804156719E-04
   1.000141047842867E-03   1.010192734196616E-03   1.020345444775393E-03
   1.030600194983877E-03   1.040958010434608E-03   1.051419927050665E-03
   1.061986991169378E-03   1.072660259647084E-03   1.083440799964942E-03
   1.094329690335812E-03   1.105328019812218E-03   1.116436888395381E-03
   1.127657407145376E-03   1.138990698292380E-03   1.150437895349048E-03
   1.162000143224024E-03   1.173678598336591E-03   1.185474428732488E-03
   1.197388814200874E-03   1.209422946392499E-03   1.221578028939040E-03
   1.233855277573659E-03   1.246255920252773E-03   1.258781197279043E-03
   1.271432361425616E-03   1.284210678061614E-03   1.297117425278884E-03
   1.310153894020042E-03   1.323321388207795E-03   1.336621224875574E-03
   1.350054734299481E-03   1.363623260131577E-03   1.377328159534503E-03
   1.391170803317473E-03   1.405152576073624E-03   1.419274876318772E-03
   1.433539116631551E-03   1.447946723794978E-03   1.462499138939448E-03
   1.477197817687167E-03   1.492044230298047E-03   1.507039861817075E-03
   1.522186212223175E-03   1.537484796579567E-03   1.552937145185645E-03
   1.568544803730398E-03   1.584309333447380E-03   1.600232311271240E-03
   1.616315329995832E-03   1.632559998433946E-03   1.648967941578626E-03
   1.665540800766136E-03   1.682280233840569E-03   1.699187915320126E-03
   1.716265536565070E-03   1.733514805947388E-03   1.750937449022166E-03
   1.768535208700693E-03   1.786309845425327E-03   1.804263137346125E-03
   1.822396880499266E-03   1.840712888987277E-03   1.859212995161091E-03
   1.877899049803941E-03   1.896772922317120E-03   1.915836500907630E-03
   1.935091692777726E-03   1.954540424316379E-03   1.974184641292692E-03
   1.994026309051264E-03   2.014067412709550E-03   2.034309957357210E-03
   2.054755968257485E-03   2.075407491050620E-03   2.096266591959348E-03
   2.117335357996464E-03   2.138615897174503E-03   2.160110338717556E-03
   2.181820833275217E-03   2.203749553138739E-03   2.225898692459350E-03
   2.248270467468812E-03   2.270867116702210E-03   2.293690901223020E-03
   2.316744104850462E-03   2.340029034389148E-03   2.363548019861093E-03
   2.387303414740083E-03   2.411297596188418E-03   2.435532965296075E-03
   2.460011947322300E-03   2.484736991939678E-03   2.509710573480678E-03
   2.534935191186710E-03   2.560413369459732E-03   2.586147658116418E-03
   2.612140632644928E-03   2.638394894464286E-03   2.664913071186417E-03
   2.691697816880854E-03   2.718751812342162E-03   2.746077765360085E-03
   2.773678410992459E-03   2.801556511840911E-03   2.829714858329389E-03
   2.858156268985545E-03   2.886883590724980E-03   2.915899699138417E-03
   2.945207498781820E-03   2.974809923469483E-03   3.004709936570120E-03
   3.034910531305988E-03   3.065414731055103E-03   3.096225589656533E-03
   3.127346191718851E-03   3.158779652931733E-03   3.190529120380784E-03
   3.222597772865586E-03   3.254988821221036E-03   3.287705508641957E-03
   3.320751111011099E-03   3.354128937230496E-03   3.387842329556244E-03
   3.421894663936719E-03   3.456289350354314E-03   3.491029833170684E-03
   3.526119591475557E-03   3.561562139439165E-03   3.597361026668308E-03
   3.633519838566120E-03   3.670042196695538E-03   3.706931759146558E-03
   3.744192220907279E-03   3.781827314238818E-03   3.819840809054105E-03
   3.858236513300611E-03   3.897018273347057E-03   3.936189974374140E-03
   3.975755540769345E-03   4.015718936525840E-03   4.056084165645552E-03
   4.096855272546437E-03   4.138036342473999E-03   4.179631501917130E-03
   4.221644919028238E-03   4.264080804047853E-03   4.306943409733611E-03
   4.350237031793764E-03   4.393966009325212E-03   4.438134725256178E-03
   4.482747606793464E-03   4.527809125874476E-03   4.573323799623975E-03
   4.619296190815619E-03   4.665730908338406E-03   4.712632607668016E-03
   4.760005991343127E-03   4.807855809446785E-03   4.856186860092859E-03
   4.905003989917621E-03   4.954312094576589E-03   5.004116119246589E-03
   5.054421059133197E-03   5.105231959983533E-03   5.156553918604551E-03
   5.208392083386817E-03   5.260751654833922E-03   5.313637886097510E-03
   5.367056083518037E-03   5.421011607171324E-03   5.475509871420978E-03
   5.530556345476707E-03   5.586156553958685E-03   5.642316077467931E-03
   5.699040553162895E-03   5.756335675342208E-03   5.814207196033759E-03
   5.872660925590138E-03   5.931702733290516E-03   5.991338547949064E-03
   6.051574358529978E-03   6.112416214769181E-03   6.173870227802830E-03
   6.235942570802651E-03   6.298639479618211E-03   6.361967253426252E-03
   6.425932255387095E-03   6.490540913308283E-03   6.555799720315533E-03
   6.621715235531030E-03   6.688294084759238E-03   6.755542961180311E-03
   6.823468626051109E-03   6.892077909414074E-03   6.961377710813903E-03
   7.031375000022273E-03   7.102076817770593E-03   7.173490276490942E-03
   7.245622561065345E-03   7.318480929583418E-03   7.392072714108534E-03
   7.466405321452604E-03   7.541486233959629E-03   7.617323010298084E-03
   7.693923286262314E-03   7.771294775582972E-03   7.849445270746755E-03
   7.928382643825414E-03   8.008114847314281E-03   8.088649914980421E-03
   8.169995962720469E-03   8.252161189428349E-03   8.335153877873085E-03
   8.418982395586661E-03   8.503655195762226E-03   8.589180818162729E-03
   8.675567890040134E-03   8.762825127065400E-03   8.850961334269292E-03
   8.939985406994292E-03   9.029906331857750E-03   9.120733187726304E-03
   9.212475146701909E-03   9.305141475119551E-03   9.398741534556861E-03
   9.493284782855761E-03   9.588780775156328E-03   9.685239164943106E-03
   9.782669705103969E-03   9.881082249001884E-03   9.980486751559553E-03
   1.008089327035727E-02   1.018231196674419E-02   1.028475310696316E-02
   1.038822706328941E-02   1.049274431518316E-02   1.059831545045659E-02
   1.070495116645517E-02   1.081266227125378E-02   1.092145968486767E-02
   1.103135444047857E-02   1.114235768567633E-02   1.125448068371614E-02
   1.136773481479162E-02   1.148213157732415E-02   1.159768258926864E-02
   1.171439958943596E-02   1.183229443883238E-02   1.195137912201629E-02
   1.207166574847247E-02   1.219316655400427E-02   1.231589390214380E-02
   1.243986028558082E-02   1.256507832761015E-02   1.269156078359847E-02
   1.281932054247031E-02   1.294837062821403E-02   1.307872420140773E-02
   1.321039456076586E-02   1.334339514470651E-02   1.347773953293994E-02
   1.361344144807883E-02   1.375051475727034E-02   1.388897347385077E-02
   1.402883175902280E-02   1.417010392355604E-02   1.431280442951129E-02
   1.445694789198879E-02   1.460254908090096E-02   1.474962292277026E-02
   1.489818450255238E-02   1.504824906548550E-02   1.519983201896585E-02
   1.535294893445029E-02   1.550761554938627E-02   1.566384776916995E-02
   1.582166166913262E-02   1.598107349655647E-02   1.614209967271976E-02
   1.630475679497247E-02   1.646906163884261E-02   1.663503116017414E-02
   1.680268249729691E-02   1.697203297322942E-02   1.714310009791490E-02
   1.731590157049159E-02   1.749045528159769E-02   1.766677931571192E-02
   1.784489195353026E-02   1.802481167437978E-02   1.820655715867010E-02
   1.839014729038356E-02   1.857560115960471E-02   1.876293806508999E-02
   1.895217751687851E-02   1.914333923894487E-02   1.933644317189468E-02
   1.953150947570408E-02   1.972855853250373E-02   1.992761094940886E-02
   2.012868756139571E-02   2.033180943422603E-02   2.053699786742012E-02
   2.074427439728001E-02   2.095366079996356E-02   2.116517909461069E-02
   2.137885154652306E-02   2.159470067039820E-02   2.181274923361957E-02
   2.203302025960358E-02   2.225553703120504E-02   2.248032309418253E-02
   2.270740226072451E-02   2.293679861303837E-02   2.316853650700330E-02
   2.340264057588873E-02   2.363913573413981E-02   2.387804718123164E-02
   2.411940040559357E-02   2.436322118860578E-02   2.460953560866936E-02
   2.485837004535174E-02   2.510975118360979E-02   2.536370601809173E-02
   2.562026185752037E-02   2.587944632915923E-02   2.614128738336403E-02
   2.640581329822119E-02   2.667305268427582E-02   2.694303448935132E-02
   2.721578800346267E-02   2.749134286382630E-02   2.776972905996833E-02
   2.805097693893394E-02   2.833511721060064E-02   2.862218095309762E-02
   2.891219961833425E-02   2.920520503764043E-02   2.950122942752141E-02
   2.980030539553050E-02   3.010246594626221E-02   3.040774448746923E-02
   3.071617483630651E-02   3.102779122570541E-02   3.134262831088183E-02
   3.166072117598131E-02   3.198210534086496E-02   3.230681676804006E-02
   3.263489186973892E-02   3.296636751514987E-02   3.330128103780484E-02
   3.363967024312722E-02   3.398157341614459E-02   3.432702932937066E-02
   3.467607725086087E-02   3.502875695244648E-02   3.538510871815204E-02
   3.574517335280095E-02   3.610899219081436E-02   3.647660710520882E-02
   3.684806051679777E-02   3.722339540360280E-02   3.760265531048032E-02
   3.798588435896922E-02   3.837312725736643E-02   3.876442931103599E-02
   3.915983643295802E-02   3.955939515452490E-02   3.996315263659105E-02
   4.037115668078345E-02   4.078345574108023E-02   4.120009893566500E-02
   4.162113605906437E-02   4.204661759457700E-02   4.247659472700177E-02
   4.291111935567442E-02   4.335024410782056E-02   4.379402235223433E-02
   4.424250821329240E-02   4.469575658531177E-02   4.515382314726257E-02
   4.561676437784484E-02   4.608463757094021E-02   4.655750085144916E-02
   4.703541319152491E-02   4.751843442721554E-02   4.800662527552570E-02
   4.850004735191037E-02   4.899876318821259E-02   4.950283625105931E-02
   5.001233096072672E-02   5.052731271049046E-02   5.104784788647356E-02
   5.157400388800730E-02   5.210584914851950E-02   5.264345315696607E-02
   5.318688647982085E-02   5.373622078364126E-02   5.429152885822553E-02
   5.485288464037920E-02   5.542036323830881E-02   5.599404095666111E-02
   5.657399532222705E-02   5.716030511032926E-02   5.775305037191372E-02
   5.835231246136675E-02   5.895817406507730E-02   5.957071923076777E-02
   6.019003339761553E-02   6.081620342718828E-02   6.144931763521740E-02
   6.208946582423389E-02   6.273673931709271E-02   6.339123099141067E-02
   6.405303531494638E-02   6.472224838194857E-02   6.539896795050211E-02
   6.608329348090075E-02   6.677532617507716E-02   6.747516901712090E-02
   6.818292681491694E-02   6.889870624293680E-02   6.962261588621742E-02
   7.035476628556102E-02   7.109526998399301E-02   7.184424157451445E-02
   7.260179774918619E-02   7.336805734958451E-02   7.414314141866769E-02
   7.492717325409451E-02   7.572027846303732E-02   7.652258501853199E-02
   7.733422331741034E-02   7.815532623985945E-02   7.898602921065545E-02
   7.982647026211942E-02   8.067679009884453E-02   8.153713216424509E-02
   8.240764270897843E-02   8.328847086129379E-02   8.417976869936057E-02
   8.508169132563326E-02   8.599439694330797E-02   8.691804693493005E-02
   8.785280594321060E-02   8.879884195411335E-02   8.975632638227315E-02
   9.072543415880918E-02   9.170634382159672E-02   9.269923760806299E-02
   9.370430155057384E-02   9.472172557447833E-02   9.575170359888048E-02
   9.679443364020753E-02   9.785011791864508E-02   9.891896296751183E-02
   1.000011797456447E-01   1.010969837528689E-01   1.022065951486256E-01
   1.033302388738323E-01   1.044681447760493E-01   1.056205477380290E-01
   1.067876878097210E-01   1.079698103438085E-01   1.091671661348519E-01
   1.103800115621105E-01   1.116086087361188E-01   1.128532256490868E-01
   1.141141363291969E-01   1.153916209988660E-01   1.166859662370390E-01
   1.179974651455795E-01   1.193264175198198E-01   1.206731300233268E-01
   1.220379163669405E-01   1.234210974921334E-01   1.248230017587376E-01
   1.262439651370793E-01   1.276843314045510E-01   1.291444523466513E-01
   1.306246879625068E-01   1.321254066748872E-01   1.336469855447110E-01
   1.351898104900297E-01   1.367542765094673E-01   1.383407879100754E-01
   1.399497585395514E-01   1.415816120227508E-01   1.432367820024045E-01
   1.449157123839364E-01   1.466188575842483E-01   1.483466827843238E-01
   1.500996641854679E-01   1.518782892689773E-01   1.536830570590050E-01
   1.555144783883432E-01   1.573730761668205E-01   1.592593856519638E-01
   1.611739547215340E-01   1.631173441474977E-01   1.650901278709469E-01
   1.670928932774240E-01   1.691262414720494E-01   1.711907875537848E-01
   1.732871608880977E-01   1.754160053772170E-01   1.775779797270874E-01
   1.797737577100471E-01   1.820040284221587E-01   1.842694965340199E-01
   1.865708825337783E-01   1.889089229609547E-01   1.912843706295560E-01
   1.936979948388256E-01   1.961505815698406E-01   1.986429336660036E-01
   2.011758709953236E-01   2.037502305921998E-01   2.063668667762390E-01
   2.090266512454371E-01   2.117304731408464E-01   2.144792390796249E-01
   2.172738731531239E-01   2.201153168864180E-01   2.230045291554137E-01
   2.259424860573858E-01   2.289301807304952E-01   2.319686231175181E-01
   2.350588396686879E-01   2.382018729781933E-01   2.413987813485158E-01
   2.446506382763875E-01   2.479585318537610E-01   2.513235640767484E-01
   2.547468500550503E-01   2.582295171139378E-01   2.617727037803760E-01
   2.653775586443873E-01   2.690452390862514E-01   2.727769098596263E-01
   2.765737415201392E-01   2.804369086884749E-01   2.843675881364435E-01
   2.883669566839731E-01   2.924361888944387E-01   2.965764545552048E-01
   3.007889159297533E-01   3.050747247672708E-01   3.094350190550975E-01
   3.138709194990257E-01   3.183835257160352E-01   3.229739121237417E-01
   3.276431235105638E-01   3.323921702704550E-01   3.372220232859570E-01
   3.421336084433781E-01   3.471278007640740E-01   3.522054181361237E-01
   3.573672146312113E-01   3.626138733922085E-01   3.679459990778917E-01
   3.733641098524051E-01   3.788686289085367E-01   3.844598755156626E-01
   3.901380555853345E-01   3.959032517499883E-01   4.017554129531857E-01
   4.076943435531710E-01   4.137196919454083E-01   4.198309387141492E-01
   4.260273843280643E-01   4.323081364005305E-01   4.386720965413677E-01
   4.451179468336863E-01   4.516441359770581E-01   4.582488651464812E-01
   4.649300736255937E-01   4.716854242822828E-01   4.785122889652509E-01
   4.854077339111921E-01   4.923685052639978E-01   4.993910148197277E-01
   5.064713261239673E-01   5.136051410614548E-01   5.207877870914297E-01
   5.280142052958628E-01   5.352789394213652E-01   5.425761261089613E-01
   5.498994865187529E-01   5.572423195685362E-01   5.645974970162928E-01
   5.719574606258399E-01   5.793142216623370E-01   5.866593629693836E-01
   5.939840438816338E-01   6.012790082256751E-01   6.085345956568631E-01
   6.157407565703058E-01   6.228870708097276E-01   6.299627703779720E-01
   6.369567663268924E-01   6.438576799719022E-01   6.506538785370468E-01
   6.573335152898480E-01   6.638845741710525E-01   6.702949188628085E-01
   6.765523461696014E-01   6.826446435099003E-01   6.885596502331875E-01
   6.942853223876314E-01   6.998098004689903E-01   7.051214795825479E-01
   7.102090813484863E-01   7.150617267788102E-01   7.196690092527537E-01
   7.240210666198935E-01   7.281086513685207E-01   7.319231977140802E-01
   7.354568843917305E-01   7.387026918817546E-01   7.416544527601158E-01
   7.443068938527317E-01   7.466556688850198E-01   7.486973803619991E-01
   7.504295894933016E-01   7.518508130964100E-01   7.529605065754418E-01
   7.537590322874590E-01   7.542476128798328E-01   7.544282695178025E-01
   7.543037453293705E-01   7.538774148847506E-01   7.531531811112654E-01
   7.521353617354075E-01   7.508285681576705E-01   7.492375806213523E-01
   7.473672246550940E-01   7.452222550747779E-01   7.428072553502310E-01
   7.401265619051640E-01   7.371842249555154E-01   7.339840198335431E-01
   7.305295254243228E-01   7.268242842208169E-01   7.228719954390573E-01
   7.186765713833049E-01   7.142421375218525E-01   7.095730279672383E-01
   7.046737806186099E-01   6.995491319788574E-01   6.942040116592033E-01
   6.886435365838249E-01   6.828730049068273E-01   6.768978896535014E-01
   6.707238320973239E-01   6.643566348836434E-01   6.578022549103973E-01
   6.510667959756475E-01   6.441565012011290E-01   6.370777452404766E-01
   6.298370262803000E-01   6.224409578418638E-01   6.148962603908146E-01
   6.072097527621952E-01   5.993883434079389E-01   5.914390214741101E-01
   5.833688477154639E-01   5.751849452553470E-01   5.668944901996490E-01
   5.585047021143972E-01   5.500228343777223E-01   5.414561644181584E-01
   5.328119838530835E-01   5.240975885422644E-01   5.153202685739641E-01
   5.064872982028505E-01   4.976059257610345E-01   4.886833635658328E-01
   4.797267778500087E-01   4.707432787423653E-01   4.617399103285502E-01
   4.527236408237192E-01   4.437013528902529E-01   4.346798341349394E-01
   4.256657678208828E-01   4.166657238298241E-01   4.076861499105321E-01
   3.987333632484061E-01   3.898135423904135E-01   3.809327195579811E-01
   3.720967733784341E-01   3.633114220631437E-01   3.545822170576707E-01
   3.459145371858997E-01   3.373135833066084E-01   3.287843734971190E-01
   3.203317387746736E-01   3.119603193620913E-01   3.036745615001396E-01
   2.954787148049778E-01   2.873768301650770E-01   2.793727581682296E-01
   2.714701480457179E-01   2.636724471174577E-01   2.559829007189913E-01
   2.484045525886543E-01   2.409402456910502E-01   2.335926234512066E-01
   2.263641313724274E-01   2.192570190099213E-01   2.122733422717535E-01
   2.054149660185446E-01   1.986835669335743E-01   1.920806366355608E-01
   1.856074850072959E-01   1.792652437145332E-01   1.730548698909903E-01
   1.669771499669986E-01   1.610327036211840E-01   1.552219878365340E-01
   1.495453010442666E-01   1.440027873410108E-01   1.385944407669134E-01
   1.333201096343266E-01   1.281795008987157E-01   1.231721845652678E-01
   1.182975981263923E-01   1.135550510268257E-01   1.089437291543769E-01
   1.044626993554542E-01   1.001109139753810E-01   9.588721542413972E-02
   9.179034076856106E-02   8.781892635211756E-02   8.397151244338033E-02
   8.024654791386987E-02   7.664239494549399E-02   7.315733376702858E-02
   6.978956741818618E-02   6.653722653875085E-02   6.339837417906616E-02
   6.037101062686782E-02   5.745307824409830E-02   5.464246630595616E-02
   5.193701583304793E-02   4.933452440619076E-02   4.683275095219993E-02
   4.442942048793908E-02   4.212222880906893E-02   3.990884710937053E-02
   3.778692651629340E-02   3.575410252853846E-02   3.380799934206882E-02
   3.194623405195956E-02   3.016642071894532E-02   2.846617429135523E-02
   2.684311437526263E-02   2.529486884801272E-02   2.381907731268337E-02
   2.241339439332775E-02   2.107549287288026E-02   1.980306667723162E-02
   1.859383371007609E-02   1.744553854363145E-02   1.635595497021139E-02
   1.532288841893641E-02   1.434417824069906E-02   1.341769986300459E-02
   1.254136681465995E-02   1.171313261867222E-02   1.093099255032195E-02
   1.019298525633950E-02   9.497194230537149E-03   8.841749141190340E-03
   8.224827005911997E-03   7.644653210673661E-03   7.099502370904928E-03
   6.587699034132539E-03   6.107618225275176E-03   5.657685837366386E-03
   5.236378872027733E-03   4.842225535371771E-03   4.473805196124192E-03
   4.129748213586685E-03   3.808735643616263E-03   3.509498831091432E-03
   3.230818897406307E-03   2.971526131424195E-03   2.730499292079768E-03
   2.506664830488707E-03   2.298996039046209E-03   2.106512134603195E-03
   1.928277282426018E-03   1.763399567287823E-03   1.611029917716172E-03
   1.470360989134610E-03   1.340626011386107E-03   1.221097605903102E-03
   1.111086577589579E-03   1.009940686303837E-03   9.170434026579832E-04
   8.318126526807174E-04   7.536995557218704E-04   6.821871598021551E-04
   6.167891784285902E-04   5.570487327035265E-04   5.025371023525017E-04
   4.528524890836523E-04   4.076187954700107E-04   3.664844223170918E-04
   3.291210872434682E-04   2.952226669634117E-04   2.645040655200683E-04
   2.367001104770425E-04   2.115644788374839E-04   1.888686542246397E-04
   1.684009166278809E-04   1.499653657949262E-04   1.333809791356235E-04
   1.184807047962732E-04   1.051105903670370E-04   9.312894749917555E-05
   8.240555253431318E-05   7.282088308503869E-05   6.426539035523411E-05
   5.663880684971654E-05   4.984948899613763E-05   4.381379408753981E-05
   3.845549085135568E-05   3.370520285971265E-05   2.949988391634565E-05
   2.578232448683881E-05   2.250068818087587E-05   1.960807724718612E-05
   1.706212600341191E-05   1.482462109364005E-05   1.286114744526570E-05
   1.114075878360937E-05   9.635671556696618E-06   8.320981123246004E-06
   7.174399063610480E-06   6.176010485603309E-06   5.308050214250968E-06
   4.554696776005705E-06   3.901883113292597E-06   3.337122993954546E-06
   2.849352111710672E-06   2.428782907700772E-06   2.066772179117513E-06
   1.755700578422049E-06   1.488863145316537E-06   1.260370053155168E-06
   1.065056791486117E-06   8.984030466300307E-07   7.564595823418193E-07
   6.357824624236222E-07   5.333739964349951E-07   4.466298281839276E-07
   3.732916243053901E-07   3.114048567924122E-07   2.592812087101068E-07
   2.154651663889058E-07   1.787043940730713E-07   1.479235182270034E-07
   1.222009784252927E-07   1.007486299413078E-07   8.289380978090644E-08
   6.806360298762127E-08   5.577106957312543E-08   4.560321442741291E-08
   3.721050306529061E-08   3.029774510812587E-08   2.461618502823288E-08
   1.995665594979850E-08   1.614366726178059E-08   1.303031051555728E-08
   1.049388061691079E-08   8.432120743752815E-09   6.760009794454119E-09
   5.407020563628433E-09   4.314785319242211E-09   3.435113082479104E-09
   2.728309753870144E-09   2.161758347794998E-09   1.708722052393929E-09
   1.347337680123410E-09   1.059771370137676E-09   8.315121984884555E-10
   6.507826941314240E-10   5.080481929043530E-10   3.956095299364638E-10
   3.072658121473741E-10   2.380359623361478E-10   1.839294176307717E-10
   1.417578277155820E-10   1.089808595362890E-10   8.358029982597743E-11
   6.395757717485491E-11   4.885062169832397E-11   3.726666091573721E-11
   2.842813180354209E-11   2.162435613563840E-11   1.640185592341747E-11
   1.240467904500979E-11   9.354239047322321E-12   7.033140938014753E-12
   5.272243995283010E-12   3.940345221596570E-12   2.935977815000449E-12
   2.180911233200758E-12   1.615015807328520E-12   1.191945802269369E-12
   8.769365748428722E-13   6.431289185062174E-13   4.701453803463738E-13
   3.425757143436040E-13   2.488038328704594E-13   1.801023358977459E-13
   1.299358388910320E-13   9.342676123558679E-14   6.694707640460700E-14
   4.780738914503930E-14   3.402095347854812E-14   2.412519228168794E-14
   1.704718150493044E-14   1.200262903666529E-14   8.420279744041897E-15
   5.885551697627685E-15   4.098664637336153E-15   2.843649087595390E-15
   1.965494054618463E-15   1.353359323753972E-15   9.282896966823216E-16
   6.342583203204429E-16   4.316622652311680E-16   2.926173911678568E-16
   1.975681865336426E-16   1.328547983551369E-16   8.897401162065997E-17
   5.934128743364447E-17   3.941310124615225E-17   2.606729181278085E-17
   1.716739908316237E-17   1.125765193643065E-17   7.350334590789941E-18
   4.778190312514376E-18   3.092414461518072E-18   1.992464295101512E-18
   1.277975381690964E-18   8.159692800635502E-19   5.185905563057130E-19
   3.280611234807479E-19   2.065589382334796E-19   1.294409721152359E-19
   8.072673163242450E-20   5.010255545576040E-20   3.094412112848784E-20
   1.901738704959635E-20   1.162937548201051E-20   7.075758705082651E-21
   4.283302140840400E-21   2.579593419267282E-21   1.545497193693536E-21
   9.211002970191701E-22   5.460651590187026E-22   3.220013777935028E-22
   1.888527656081724E-22   1.101584282708635E-22   6.390238147519662E-23
   3.686355510070741E-23   2.114627790566414E-23   1.206153674874174E-23
   6.840353384082997E-24   3.856883891121015E-24   2.161978734558819E-24
   1.204751672795291E-24   6.673429992229373E-25   3.674346039998311E-25
   2.010777593862917E-25   1.093640171108886E-25   5.911319531142295E-26
   3.175168963865616E-26   1.694705573458162E-26   8.987501953080024E-27
   4.735579090924752E-27   2.478953040216651E-27   1.289128122504734E-27
   6.659285348136095E-28   3.416912187297511E-28   1.741346758146170E-28
   8.813578164503701E-29   4.430011153686957E-29   2.211121683453495E-29
   1.095834910284566E-29   5.392266853465729E-30   2.634269231736652E-30
   1.277556006217541E-30   6.150336724252301E-31   2.938900120475973E-31
   1.393815387895100E-31   6.560355274452717E-32   3.064206225182056E-32
   1.420180898599133E-32   6.530862951019804E-33   2.979645117010234E-33
   1.348624606778278E-33   6.055016561726785E-34   2.696510468168788E-34
   1.191011219917742E-34   5.216997782364051E-35   0.000000000000000E+00
   0.000000000000000E+00   0.000000000000000E+00   0.000000000000000E+00
   0.000000000000000E+00   0.000000000000000E+00   0.000000000000000E+00
   0.000000000000000E+00   0.000000000000000E+00   0.000000000000000E+00
   0.000000000000000E+00   0.000000000000000E+00   0.000000000000000E+00
   0.000000000000000E+00   0.000000000000000E+00   0.000000000000000E+00
   0.000000000000000E+00   0.000000000000000E+00   0.000000000000000E+00
   0.000000000000000E+00   0.000000000000000E+00   0.000000000000000E+00
   0.000000000000000E+00
    </PP_CHI.1>
    <PP_CHI.2 size="1525" index="2" label="3P" l="1" occupation="1.30000000000000" n="2" cutoff_radius="2.00000000000000" ultrasoft_cutoff_radius="2.00000000000000">
   2.280541974159376E-10   2.326611978020129E-10   2.373612657693835E-10
   2.421562814079039E-10   2.470481627877630E-10   2.520388667267381E-10
   2.571303895729468E-10   2.623247680034152E-10   2.676240798387732E-10
   2.730304448744128E-10   2.785460257284327E-10   2.841730287067154E-10
   2.899137046854787E-10   2.957703500116563E-10   3.017453074214669E-10
   3.078409669775405E-10   3.140597670249747E-10   3.204041951667048E-10
   3.268767892585797E-10   3.334801384245372E-10   3.402168840922875E-10
   3.470897210499201E-10   3.541013985238555E-10   3.612547212785712E-10
   3.685525507385459E-10   3.759978061328675E-10   3.835934656629626E-10
   3.913425676939177E-10   3.992482119698656E-10   4.073135608539238E-10
   4.155418405931827E-10   4.239363426092464E-10   4.325004248148468E-10
   4.412375129570521E-10   4.501511019876120E-10   4.592447574609856E-10
   4.685221169606089E-10   4.779868915539771E-10   4.876428672771226E-10
   4.974939066490786E-10   5.075439502169387E-10   5.177970181321274E-10
   5.282572117585156E-10   5.389287153130206E-10   5.498157975393467E-10
   5.609228134155429E-10   5.722542058960492E-10   5.838145076889395E-10
   5.956083430690648E-10   6.076404297278231E-10   6.199155806603020E-10
   6.324387060905390E-10   6.452148154356754E-10   6.582490193097934E-10
   6.715465315682255E-10   6.851126713931689E-10   6.989528654214311E-10
   7.130726499151519E-10   7.274776729763856E-10   7.421736968064169E-10
   7.571666000107174E-10   7.724623799504661E-10   7.880671551415741E-10
   8.039871677021735E-10   8.202287858495465E-10   8.367985064474980E-10
   8.537029576051871E-10   8.709489013284600E-10   8.885432362247397E-10
   9.064930002625659E-10   9.248053735868705E-10   9.434876813911350E-10
   9.625473968475652E-10   9.819921440964613E-10   1.001829701295970E-09
   1.022068003733458E-09   1.042715146999727E-09   1.063779390227364E-09
   1.085269159394499E-09   1.107193050695308E-09   1.129559833978613E-09
   1.152378456255930E-09   1.175658045280398E-09   1.199407913198000E-09
   1.223637560272546E-09   1.248356678685902E-09   1.273575156414998E-09
   1.299303081187144E-09   1.325550744515262E-09   1.352328645814623E-09
   1.379647496602756E-09   1.407518224784195E-09   1.435951979021792E-09
   1.464960133196324E-09   1.494554290956199E-09   1.524746290359074E-09
   1.555548208607228E-09   1.586972366878616E-09   1.619031335255491E-09
   1.651737937752613E-09   1.685105257447022E-09   1.719146641711443E-09
   1.753875707553419E-09   1.789306347062289E-09   1.825452732966208E-09
   1.862329324301430E-09   1.899950872196121E-09   1.938332425770995E-09
   1.977489338159169E-09   2.017437272647623E-09   2.058192208942723E-09
   2.099770449562311E-09   2.142188626356932E-09   2.185463707162800E-09
   2.229613002589151E-09   2.274654172942725E-09   2.320605235292123E-09
   2.367484570674866E-09   2.415310931450071E-09   2.464103448799625E-09
   2.513881640380925E-09   2.564665418134198E-09   2.616475096247545E-09
   2.669331399282885E-09   2.723255470466055E-09   2.778268880144381E-09
   2.834393634415105E-09   2.891652183928115E-09   2.950067432866514E-09
   3.009662748108589E-09   3.070461968574876E-09   3.132489414764046E-09
   3.195769898481426E-09   3.260328732764054E-09   3.326191742006230E-09
   3.393385272289621E-09   3.461936201922044E-09   3.531871952189138E-09
   3.603220498323256E-09   3.676010380693926E-09   3.750270716224379E-09
   3.826031210038703E-09   3.903322167344287E-09   3.982174505554313E-09
   4.062619766655135E-09   4.144690129823493E-09   4.228418424298600E-09
   4.313838142514287E-09   4.400983453496421E-09   4.489889216530971E-09
   4.580590995108176E-09   4.673125071148436E-09   4.767528459515540E-09
   4.863838922823116E-09   4.962094986540177E-09   5.062335954401831E-09
   5.164601924131284E-09   5.268933803479454E-09   5.375373326588658E-09
   5.483963070686782E-09   5.594746473118754E-09   5.707767848722075E-09
   5.823072407553306E-09   5.940706272972728E-09   6.060716500094294E-09
   6.183151094608278E-09   6.308059031984224E-09   6.435490277061756E-09
   6.565495804037198E-09   6.698127616853923E-09   6.833438770004622E-09
   6.971483389753804E-09   7.112316695789025E-09   7.255995023309519E-09
   7.402575845560981E-09   7.552117796825671E-09   7.704680695876884E-09
   7.860325569907274E-09   8.019114678940525E-09   8.181111540736200E-09
   8.346380956197688E-09   8.514989035293421E-09   8.687003223501741E-09
   8.862492328789988E-09   9.041526549138625E-09   9.224177500621321E-09
   9.410518246052375E-09   9.600623324212778E-09   9.794568779666757E-09
   9.992432193180566E-09   1.019429271275585E-08   1.040023108528989E-08
   1.061032968887545E-08   1.082467256575308E-08   1.104334545592917E-08
   1.126643583147306E-08   1.149403293150702E-08   1.172622779790313E-08
   1.196311331170119E-08   1.220478423026241E-08   1.245133722517361E-08
   1.270287092091708E-08   1.295948593432177E-08   1.322128491481130E-08
   1.348837258546510E-08   1.376085578490904E-08   1.403884351005231E-08
   1.432244695968763E-08   1.461177957897222E-08   1.490695710480738E-08
   1.520809761213479E-08   1.551532156116807E-08   1.582875184557843E-08
   1.614851384165381E-08   1.647473545845102E-08   1.680754718896109E-08
   1.714708216230818E-08   1.749347619700299E-08   1.784686785527198E-08
   1.820739849848409E-08   1.857521234369721E-08   1.895045652134680E-08
   1.933328113410013E-08   1.972383931689927E-08   2.012228729821718E-08
   2.052878446255105E-08   2.094349341417833E-08   2.136658004220047E-08
   2.179821358690086E-08   2.223856670744315E-08   2.268781555093720E-08
   2.314613982290024E-08   2.361372285914155E-08   2.409075169909908E-08
   2.457741716065777E-08   2.507391391647922E-08   2.558044057187331E-08
   2.609719974424304E-08   2.662439814413403E-08   2.716224665792162E-08
   2.771096043216802E-08   2.827075895968405E-08   2.884186616732888E-08
   2.942451050558392E-08   3.001892503993604E-08   3.062534754410672E-08
   3.124402059516474E-08   3.187519167056025E-08   3.251911324711895E-08
   3.317604290203625E-08   3.384624341591148E-08   3.452998287786357E-08
   3.522753479277025E-08   3.593917819067369E-08   3.666519773839605E-08
   3.740588385341019E-08   3.816153282001026E-08   3.893244690782943E-08
   3.971893449275173E-08   4.052131018026643E-08   4.133989493131444E-08
   4.217501619067685E-08   4.302700801795719E-08   4.389621122120970E-08
   4.478297349326698E-08   4.568764955082158E-08   4.661060127631761E-08
   4.755219786270840E-08   4.851281596113835E-08   4.949283983160845E-08
   5.049266149668548E-08   5.151268089831592E-08   5.255330605780822E-08
   5.361495323904639E-08   5.469804711500142E-08   5.580302093760566E-08
   5.693031671105947E-08   5.808038536863875E-08   5.925368695307396E-08
   6.045069080057329E-08   6.167187572856350E-08   6.291773022722283E-08
   6.418875265488378E-08   6.548545143738274E-08   6.680834527143707E-08
   6.815796333213057E-08   6.953484548459034E-08   7.093954249993997E-08
   7.237261627561517E-08   7.383464006013014E-08   7.532619868238419E-08
   7.684788878560119E-08   7.840031906599462E-08   7.998411051625383E-08
   8.159989667394932E-08   8.324832387495606E-08   8.493005151199595E-08
   8.664575229840398E-08   8.839611253722160E-08   9.018183239572758E-08
   9.200362618551376E-08   9.386222264821863E-08   9.575836524703387E-08
   9.769281246409909E-08   9.966633810390434E-08   1.016797316028224E-07
   1.037337983448926E-07   1.058293599839861E-07   1.079672547724771E-07
   1.101483378965550E-07   1.123734818183099E-07   1.146435766247284E-07
   1.169595303837403E-07   1.193222695074570E-07   1.217327391227486E-07
   1.241919034493067E-07   1.267007461853448E-07   1.292602709010899E-07
   1.318715014402238E-07   1.345354823294333E-07   1.372532791962347E-07
   1.400259791952379E-07   1.428546914430229E-07   1.457405474617996E-07
   1.486847016320321E-07   1.516883316542050E-07   1.547526390199185E-07
   1.578788494925010E-07   1.610682135973296E-07   1.643220071220557E-07
   1.676415316269369E-07   1.710281149654775E-07   1.744831118155867E-07
   1.780079042214668E-07   1.816039021464480E-07   1.852725440369921E-07
   1.890152973980889E-07   1.928336593802768E-07   1.967291573785214E-07
   2.007033496431936E-07   2.047578259033882E-07   2.088942080028362E-07
   2.131141505486625E-07   2.174193415732494E-07   2.218115032094699E-07
   2.262923923795638E-07   2.308638014979272E-07   2.355275591881006E-07
   2.402855310142414E-07   2.451396202273731E-07   2.500917685267085E-07
   2.551439568363532E-07   2.602982060977005E-07   2.655565780778322E-07
   2.709211761942510E-07   2.763941463562730E-07   2.819776778234181E-07
   2.876740040811403E-07   2.934854037342502E-07   2.994142014183831E-07
   3.054627687298816E-07   3.116335251744645E-07   3.179289391350562E-07
   3.243515288591714E-07   3.309038634662440E-07   3.375885639753052E-07
   3.444083043534236E-07   3.513658125853237E-07   3.584638717646120E-07
   3.657053212070469E-07   3.730930575863008E-07   3.806300360926625E-07
   3.883192716151487E-07   3.961638399474948E-07   4.041668790185093E-07
   4.123315901472810E-07   4.206612393237458E-07   4.291591585151189E-07
   4.378287469987227E-07   4.466734727217356E-07   4.556968736884109E-07
   4.649025593753201E-07   4.742942121751853E-07   4.838755888698774E-07
   4.936505221331722E-07   5.036229220638652E-07   5.137967777498523E-07
   5.241761588638128E-07   5.347652172911226E-07   5.455681887906570E-07
   5.565893946891390E-07   5.678332436097198E-07   5.793042332354769E-07
   5.910069521085362E-07   6.029460814655415E-07   6.151263971101978E-07
   6.275527713236458E-07   6.402301748134280E-07   6.531636787018239E-07
   6.663584565543561E-07   6.798197864492709E-07   6.935530530888231E-07
   7.075637499532175E-07   7.218574814980562E-07   7.364399653961826E-07
   7.513170348248090E-07   7.664946407988477E-07   7.819788545513754E-07
   7.977758699621948E-07   8.138920060354465E-07   8.303337094272721E-07
   8.471075570245464E-07   8.642202585756937E-07   8.816786593746569E-07
   8.994897429990805E-07   9.176606341038130E-07   9.361986012708330E-07
   9.551110599167562E-07   9.744055752590736E-07   9.940898653423073E-07
   1.014171804125303E-06   1.034659424630885E-06   1.055560922159142E-06
   1.076884657565621E-06   1.098639160605745E-06   1.120833133346796E-06
   1.143475453648814E-06   1.166575178715823E-06   1.190141548718792E-06
   1.214183990491780E-06   1.238712121302754E-06   1.263735752700573E-06
   1.289264894439697E-06   1.315309758484163E-06   1.341880763092459E-06
   1.368988536984909E-06   1.396643923595247E-06   1.424857985408073E-06
   1.453642008383937E-06   1.483007506473807E-06   1.512966226224734E-06
   1.543530151478558E-06   1.574711508165532E-06   1.606522769194781E-06
   1.638976659443555E-06   1.672086160847264E-06   1.705864517592344E-06
   1.740325241414014E-06   1.775482117001063E-06   1.811349207509809E-06
   1.847940860189450E-06   1.885271712121052E-06   1.923356696072465E-06
   1.962211046471521E-06   2.001850305499889E-06   2.042290329310024E-06
   2.083547294367724E-06   2.125637703922791E-06   2.168578394610418E-06
   2.212386543185920E-06   2.257079673395518E-06   2.302675662985914E-06
   2.349192750855468E-06   2.396649544349832E-06   2.445065026704957E-06
   2.494458564640460E-06   2.544849916106371E-06   2.596259238186399E-06
   2.648707095160814E-06   2.702214466732225E-06   2.756802756417499E-06
   2.812493800109252E-06   2.869309874810226E-06   2.927273707544156E-06
   2.986408484446606E-06   3.046737860039476E-06   3.108285966692827E-06
   3.171077424277862E-06   3.235137350014894E-06   3.300491368520248E-06
   3.367165622056128E-06   3.435186780987505E-06   3.504582054450270E-06
   3.575379201234868E-06   3.647606540889796E-06   3.721292965049402E-06
   3.796467948990487E-06   3.873161563422382E-06   3.951404486515161E-06
   4.031228016170847E-06   4.112664082542496E-06   4.195745260806162E-06
   4.280504784190861E-06   4.366976557271762E-06   4.455195169531866E-06
   4.545195909197655E-06   4.637014777354237E-06   4.730688502345587E-06
   4.826254554465703E-06   4.923751160946501E-06   5.023217321248483E-06
   5.124692822660269E-06   5.228218256213233E-06   5.333835032917624E-06
   5.441585400326666E-06   5.551512459435213E-06   5.663660181919801E-06
   5.778073427726911E-06   5.894797963016534E-06   6.013880478468172E-06
   6.135368607956647E-06   6.259310947605105E-06   6.385757075222938E-06
   6.514757570136330E-06   6.646364033419330E-06   6.780629108533656E-06
   6.917606502385350E-06   7.057351006806802E-06   7.199918520472697E-06
   7.345366071258641E-06   7.493751839051420E-06   7.645135179020012E-06
   7.799576645356667E-06   7.957138015497534E-06   8.117882314832500E-06
   8.281873841914197E-06   8.449178194176174E-06   8.619862294170568E-06
   8.793994416335724E-06   8.971644214304544E-06   9.152882748764400E-06
   9.337782515879804E-06   9.526417476289144E-06   9.718863084687177E-06
   9.915196320005019E-06   1.011549571619973E-05   1.031984139366585E-05
   1.052831509128131E-05   1.074100019910073E-05   1.095798179170902E-05
   1.117934666224867E-05   1.140518335713432E-05   1.163558221146858E-05
   1.187063538517312E-05   1.211043689984951E-05   1.235508267638470E-05
   1.260467057331596E-05   1.285930042597073E-05   1.311907408639703E-05
   1.338409546410037E-05   1.365447056760352E-05   1.393030754684553E-05
   1.421171673643732E-05   1.449881069979073E-05   1.479170427413905E-05
   1.509051461646665E-05   1.539536125036647E-05   1.570636611384376E-05
   1.602365360808534E-05   1.634735064721399E-05   1.667758670904747E-05
   1.701449388688297E-05   1.735820694232735E-05   1.770886335919428E-05
   1.806660339849013E-05   1.843157015451010E-05   1.880390961206762E-05
   1.918377070487938E-05   1.957130537512952E-05   1.996666863423679E-05
   2.037001862484902E-05   2.078151668408963E-05   2.120132740808145E-05
   2.162961871777357E-05   2.206656192609759E-05   2.251233180648037E-05
   2.296710666274006E-05   2.343106840039403E-05   2.390440259940654E-05
   2.438729858840594E-05   2.487994952040025E-05   2.538255245002223E-05
   2.589530841233397E-05   2.641842250322321E-05   2.695210396142308E-05
   2.749656625218815E-05   2.805202715266027E-05   2.861870883895829E-05
   2.919683797502642E-05   2.978664580327673E-05   3.038836823706214E-05
   3.100224595501661E-05   3.162852449730045E-05   3.226745436378914E-05
   3.291929111424470E-05   3.358429547050986E-05   3.426273342076592E-05
   3.495487632589557E-05   3.566100102799346E-05   3.638138996106798E-05
   3.711633126397814E-05   3.786611889565070E-05   3.863105275262402E-05
   3.941143878896497E-05   4.020758913860711E-05   4.101982224015902E-05
   4.184846296423263E-05   4.269384274334213E-05   4.355629970442577E-05
   4.443617880404311E-05   4.533383196630186E-05   4.624961822356934E-05
   4.718390386002498E-05   4.813706255811068E-05   4.910947554793802E-05
   5.010153175971158E-05   5.111362797922943E-05   5.214616900652295E-05
   5.319956781769917E-05   5.427424573005005E-05   5.537063257049503E-05
   5.648916684742393E-05   5.763029592600838E-05   5.879447620705239E-05
   5.998217330945316E-05   6.119386225634478E-05   6.243002766499937E-05
   6.369116394056121E-05   6.497777547369153E-05   6.629037684220229E-05
   6.762949301675985E-05   6.899565957074061E-05   7.038942289432163E-05
   7.181134041289283E-05   7.326198080987662E-05   7.474192425404519E-05
   7.625176263142445E-05   7.779209978187896E-05   7.936355174047092E-05
   8.096674698368970E-05   8.260232668065039E-05   8.427094494936166E-05
   8.597326911816419E-05   8.770997999244537E-05   8.948177212673492E-05
   9.128935410229162E-05   9.313344881029014E-05   9.501479374072218E-05
   9.693414127712611E-05   9.889225899726340E-05   1.008899299798611E-04
   1.029279531175421E-04   1.050071434360694E-04   1.071283324200300E-04
   1.092923683450892E-04   1.115001166169470E-04   1.137524601171313E-04
   1.160502995557673E-04   1.183945538314619E-04   1.207861603984463E-04
   1.232260756411249E-04   1.257152752561772E-04   1.282547546423665E-04
   1.308455292982092E-04   1.334886352276658E-04   1.361851293540099E-04
   1.389360899420459E-04   1.417426170288383E-04   1.446058328631281E-04
   1.475268823536067E-04   1.505069335262301E-04   1.535471779907525E-04
   1.566488314166649E-04   1.598131340187295E-04   1.630413510523002E-04
   1.663347733186306E-04   1.696947176803650E-04   1.731225275874209E-04
   1.766195736134708E-04   1.801872540032359E-04   1.838269952308107E-04
   1.875402525692381E-04   1.913285106715635E-04   1.951932841635961E-04
   1.991361182486154E-04   2.031585893242603E-04   2.072623056118479E-04
   2.114489077983703E-04   2.157200696914237E-04   2.200774988873325E-04
   2.245229374527287E-04   2.290581626198623E-04   2.336849874959124E-04
   2.384052617865869E-04   2.432208725342898E-04   2.481337448711566E-04
   2.531458427872504E-04   2.582591699142243E-04   2.634757703247634E-04
   2.687977293481174E-04   2.742271744020532E-04   2.797662758415509E-04
   2.854172478245821E-04   2.911823491953122E-04   2.970638843850775E-04
   3.030642043314895E-04   3.091857074160349E-04   3.154308404205376E-04
   3.218020995028626E-04   3.283020311922468E-04   3.349332334046506E-04
   3.416983564785292E-04   3.486001042314353E-04   3.556412350378673E-04
   3.628245629287889E-04   3.701529587132559E-04   3.776293511225902E-04
   3.852567279775522E-04   3.930381373789719E-04   4.009766889223093E-04
   4.090755549366174E-04   4.173379717484028E-04   4.257672409708751E-04
   4.343667308190956E-04   4.431398774515407E-04   4.520901863386092E-04
   4.612212336586106E-04   4.705366677217810E-04   4.800402104228883E-04
   4.897356587229984E-04   4.996268861609787E-04   5.097178443953337E-04
   5.200125647769818E-04   5.305151599535840E-04   5.412298255060544E-04
   5.521608416178994E-04   5.633125747780241E-04   5.746894795176903E-04
   5.862961001822939E-04   5.981370727386576E-04   6.102171266185449E-04
   6.225410865991162E-04   6.351138747210574E-04   6.479405122451331E-04
   6.610261216479289E-04   6.743759286575547E-04   6.879952643301064E-04
   7.018895671676926E-04   7.160643852788529E-04   7.305253785822033E-04
   7.452783210541709E-04   7.603291030216855E-04   7.756837335007222E-04
   7.913483425815962E-04   8.073291838619478E-04   8.236326369283427E-04
   8.402652098874612E-04   8.572335419478535E-04   8.745444060532486E-04
   8.922047115684547E-04   9.102215070188692E-04   9.286019828846620E-04
   9.473534744507184E-04   9.664834647134175E-04   9.859995873453930E-04
   1.005909629719391E-03   1.026221535992405E-03   1.046943410251263E-03
   1.068083519720876E-03   1.089650298036377E-03   1.111652348580410E-03
   1.134098447886837E-03   1.156997549112162E-03   1.180358785576017E-03
   1.204191474372033E-03   1.228505120050499E-03   1.253309418374195E-03
   1.278614260148831E-03   1.304429735129543E-03   1.330766136004952E-03
   1.357633962460258E-03   1.385043925320947E-03   1.413006950778645E-03
   1.441534184700747E-03   1.470636997025424E-03   1.500326986243666E-03
   1.530615983970067E-03   1.561516059604056E-03   1.593039525083325E-03
   1.625198939731233E-03   1.658007115200019E-03   1.691477120511650E-03
   1.725622287198203E-03   1.760456214543688E-03   1.795992774929263E-03
   1.832246119283848E-03   1.869230682642128E-03   1.906961189812028E-03
   1.945452661153750E-03   1.984720418472513E-03   2.024780091027151E-03
   2.065647621656811E-03   2.107339273027960E-03   2.149871634004032E-03
   2.193261626140030E-03   2.237526510304436E-03   2.282683893430891E-03
   2.328751735402062E-03   2.375748356068205E-03   2.423692442402974E-03
   2.472603055799056E-03   2.522499639506277E-03   2.573402026214838E-03
   2.625330445786419E-03   2.678305533135923E-03   2.732348336266663E-03
   2.787480324461869E-03   2.843723396635424E-03   2.901099889844795E-03
   2.959632587969161E-03   3.019344730555809E-03   3.080260021837920E-03
   3.142402639926869E-03   3.205797246182324E-03   3.270468994763344E-03
   3.336443542363812E-03   3.403747058135623E-03   3.472406233802990E-03
   3.542448293971408E-03   3.613901006634768E-03   3.686792693884234E-03
   3.761152242822565E-03   3.837009116687498E-03   3.914393366188061E-03
   3.993335641057557E-03   4.073867201827130E-03   4.156019931823855E-03
   4.239826349397324E-03   4.325319620378776E-03   4.412533570776927E-03
   4.501502699714607E-03   4.592262192610494E-03   4.684847934610189E-03
   4.779296524270991E-03   4.875645287504829E-03   4.973932291783734E-03
   5.074196360612464E-03   5.176477088272798E-03   5.280814854844245E-03
   5.387250841505757E-03   5.495827046123305E-03   5.606586299128129E-03
   5.719572279690523E-03   5.834829532194118E-03   5.952403483015694E-03
   6.072340457615524E-03   6.194687697943431E-03   6.319493380165721E-03
   6.446806632718179E-03   6.576677554690489E-03   6.709157234547362E-03
   6.844297769191803E-03   6.982152283375964E-03   7.122774949465048E-03
   7.266221007559842E-03   7.412546785983480E-03   7.561809722138078E-03
   7.714068383736884E-03   7.869382490417744E-03   8.027812935743584E-03
   8.189421809595787E-03   8.354272420966228E-03   8.522429321153945E-03
   8.693958327372278E-03   8.868926546772429E-03   9.047402400889415E-03
   9.229455650516390E-03   9.415157421013376E-03   9.604580228056327E-03
   9.797798003832646E-03   9.994886123689135E-03   1.019592143323844E-02
   1.040098227592997E-02   1.061014852109133E-02   1.082350159244634E-02
   1.104112449711541E-02   1.126310185510462E-02   1.148951992928894E-02
   1.172046665589588E-02   1.195603167549523E-02   1.219630636450064E-02
   1.244138386718882E-02   1.269135912824208E-02   1.294632892581961E-02
   1.320639190516311E-02   1.347164861274214E-02   1.374220153094428E-02
   1.401815511331563E-02   1.429961582035628E-02   1.458669215587573E-02
   1.487949470391312E-02   1.517813616622665E-02   1.548273140035655E-02
   1.579339745826591E-02   1.611025362556302E-02   1.643342146130920E-02
   1.676302483841552E-02   1.709918998463136E-02   1.744204552412799E-02
   1.779172251967959E-02   1.814835451544397E-02   1.851207758034505E-02
   1.888303035205842E-02   1.926135408160108E-02   1.964719267852646E-02
   2.004069275672438E-02   2.044200368082615E-02   2.085127761321396E-02
   2.126866956163314E-02   2.169433742740563E-02   2.212844205424202E-02
   2.257114727764906E-02   2.302261997492910E-02   2.348303011576668E-02
   2.395255081339688E-02   2.443135837634983E-02   2.491963236076401E-02
   2.541755562326058E-02   2.592531437437013E-02   2.644309823250211E-02
   2.697110027844573E-02   2.750951711039095E-02   2.805854889945588E-02
   2.861839944570681E-02   2.918927623465474E-02   2.977139049421173E-02
   3.036495725208858E-02   3.097019539361385E-02   3.158732771995253E-02
   3.221658100670159E-02   3.285818606283686E-02   3.351237778998496E-02
   3.417939524199111E-02   3.485948168475227E-02   3.555288465628253E-02
   3.625985602697575E-02   3.698065206002738E-02   3.771553347197621E-02
   3.846476549332251E-02   3.922861792917797E-02   4.000736521989842E-02
   4.080128650164858E-02   4.161066566684406E-02   4.243579142441316E-02
   4.327695735981658E-02   4.413446199476072E-02   4.500860884653564E-02
   4.589970648690454E-02   4.680806860046815E-02   4.773401404242213E-02
   4.867786689562195E-02   4.963995652686359E-02   5.062061764228470E-02
   5.162019034178394E-02   5.263902017235226E-02   5.367745818020239E-02
   5.473586096157822E-02   5.581459071211765E-02   5.691401527463696E-02
   5.803450818519741E-02   5.917644871730671E-02   6.034022192410057E-02
   6.152621867834192E-02   6.273483571006573E-02   6.396647564168924E-02
   6.522154702039751E-02   6.650046434760480E-02   6.780364810528115E-02
   6.913152477892413E-02   7.048452687694247E-02   7.186309294620805E-02
   7.326766758351998E-02   7.469870144271033E-02   7.615665123710916E-02
   7.764197973707113E-02   7.915515576225127E-02   8.069665416830192E-02
   8.226695582764669E-02   8.386654760397008E-02   8.549592232004354E-02
   8.715557871848936E-02   8.884602141506602E-02   9.056776084403650E-02
   9.232131319516004E-02   9.410720034182637E-02   9.592594975982784E-02
   9.777809443623900E-02   9.966417276785157E-02   1.015847284485816E-01
   1.035403103452418E-01   1.055314723610415E-01   1.075587732861477E-01
   1.096227766346081E-01   1.117240504669062E-01   1.138631671973845E-01
   1.160407033857351E-01   1.182572395117241E-01   1.205133597322747E-01
   1.228096516199970E-01   1.251467058822124E-01   1.275251160594760E-01
   1.299454782025613E-01   1.324083905268210E-01   1.349144530427975E-01
   1.374642671619065E-01   1.400584352759670E-01   1.426975603093021E-01
   1.453822452420865E-01   1.481130926035581E-01   1.508907039336646E-01
   1.537156792116533E-01   1.565886162500655E-01   1.595101100525359E-01
   1.624807521337409E-01   1.655011297997839E-01   1.685718253872498E-01
   1.716934154591040E-01   1.748664699555525E-01   1.780915512979292E-01
   1.813692134436181E-01   1.847000008899689E-01   1.880844476251158E-01
   1.915230760235577E-01   1.950163956843198E-01   1.985649022094752E-01
   2.021690759207691E-01   2.058293805120649E-01   2.095462616353028E-01
   2.133201454176547E-01   2.171514369075522E-01   2.210405184472662E-01
   2.249877479697408E-01   2.289934572174057E-01   2.330579498807482E-01
   2.371814996544740E-01   2.413643482091763E-01   2.456067030765254E-01
   2.499087354461223E-01   2.542705778722963E-01   2.586923218893111E-01
   2.631740155336433E-01   2.677156607722380E-01   2.723172108359156E-01
   2.769785674574203E-01   2.816995780139504E-01   2.864800325744139E-01
   2.913196608520980E-01   2.962181290639399E-01   3.011750366981484E-01
   3.061899131925355E-01   3.112622145265967E-01   3.163913197311301E-01
   3.215765273199927E-01   3.268170516494893E-01   3.321120192118533E-01
   3.374604648703230E-01   3.428613280444542E-01   3.483134488555183E-01
   3.538155642431360E-01   3.593663040656913E-01   3.649641871985344E-01
   3.706076176455514E-01   3.762948806813236E-01   3.820241390428205E-01
   3.877934291913736E-01   3.936006576675521E-01   3.994435975634910E-01
   4.053198851391993E-01   4.112270166114015E-01   4.171623451454984E-01
   4.231230780832769E-01   4.291062744410252E-01   4.351088427146765E-01
   4.411275390305212E-01   4.471589656818253E-01   4.531995700933412E-01
   4.592456442571862E-01   4.652933246848015E-01   4.713385929206774E-01
   4.773772766641843E-01   4.834050515460893E-01   4.894174436061496E-01
   4.954098325174751E-01   5.013774556020542E-01   5.073154126798998E-01
   5.132186717916177E-01   5.190820758307143E-01   5.249003501176635E-01
   5.306681109424407E-01   5.363798750959839E-01   5.420300704036722E-01
   5.476130472654456E-01   5.531230911975437E-01   5.585544363600086E-01
   5.639012800420358E-01   5.691577980639929E-01   5.743181610405086E-01
   5.793765514334303E-01   5.843271813068895E-01   5.891643106791754E-01
   5.938822663478753E-01   5.984754610459523E-01   6.029384127673905E-01
   6.072657640820540E-01   6.114523012409053E-01   6.154929728551402E-01
   6.193829079167266E-01   6.231174329138920E-01   6.266920877840508E-01
   6.301026404394117E-01   6.333450995979835E-01   6.364157256561503E-01
   6.393110393496358E-01   6.420278279691241E-01   6.445631489267248E-01
   6.469143305118303E-01   6.490789697320175E-01   6.510549272090411E-01
   6.528403191945795E-01   6.544335068886579E-01   6.558330833893549E-01
   6.570378587799506E-01   6.580468440739649E-01   6.588592349953685E-01
   6.594743968768353E-01   6.598918523811873E-01   6.601112746497989E-01
   6.601324869860266E-01   6.599554640834537E-01   6.595803331724205E-01
   6.590073749740527E-01   6.582370244640824E-01   6.572698714486079E-01
   6.561066609536735E-01   6.547482934300844E-01   6.531958247743147E-01
   6.514504661656829E-01   6.495135837192314E-01   6.473866979529060E-01
   6.450714830667931E-01   6.425697660312713E-01   6.398835254800668E-01
   6.370148904033284E-01   6.339661386350303E-01   6.307396951282492E-01
   6.273381300112234E-01   6.237641564165659E-01   6.200206280756089E-01
   6.161105366696893E-01   6.120370089301693E-01   6.078033034792443E-01
   6.034128074041035E-01   5.988690325577917E-01   5.941756115812730E-01
   5.893362936425521E-01   5.843549398903362E-01   5.792355186220071E-01
   5.739821001679033E-01   5.685988514964351E-01   5.630900305475089E-01
   5.574599803047779E-01   5.517131226203956E-01   5.458539518092597E-01
   5.398870280329704E-01   5.338169704969503E-01   5.276484504872213E-01
   5.213861842761707E-01   5.150349259291461E-01   5.085994600458864E-01
   5.020845944724924E-01   4.954951530208707E-01   4.888359682332092E-01
   4.821118742293072E-01   4.753276996739307E-01   4.684882609005165E-01
   4.615983552258395E-01   4.546627544881721E-01   4.476861988388626E-01
   4.406733908142064E-01   4.336289897110482E-01   4.265576062858223E-01
   4.194637977927659E-01   4.123520633729016E-01   4.052268398011712E-01
   3.980924975948653E-01   3.909533374823375E-01   3.838135872269443E-01
   3.766773987973289E-01   3.695488458715629E-01   3.624319216594039E-01
   3.553305370239828E-01   3.482485188817102E-01   3.411896088570661E-01
   3.341574621672746E-01   3.271556467106467E-01   3.201876423316401E-01
   3.132568402354044E-01   3.063665425247947E-01   2.995199618334669E-01
   2.927202210297679E-01   2.859703529676266E-01   2.792733002625195E-01
   2.726319150728038E-01   2.660489588692174E-01   2.595271021781065E-01
   2.530689242868897E-01   2.466769129033733E-01   2.403534637637043E-01
   2.341008801869521E-01   2.279213725774809E-01   2.218170578793426E-01
   2.157899589898411E-01   2.098420041421353E-01   2.039750262691929E-01
   1.981907623635600E-01   1.924908528492009E-01   1.868768409830651E-01
   1.813501723050187E-01   1.759121941552981E-01   1.705641552786867E-01
   1.653072055341652E-01   1.601423957278113E-01   1.550706775852424E-01
   1.500929038778840E-01   1.452098287148497E-01   1.404221080092570E-01
   1.357303001244025E-01   1.311348667014890E-01   1.266361736666389E-01
   1.222344924108494E-01   1.179300011325207E-01   1.137227863284376E-01
   1.096128444158176E-01   1.056000834655040E-01   1.016843250248147E-01
   9.786530600817320E-02   9.414268063459547E-02   9.051602239346981E-02
   8.698482602381044E-02   8.354850949713125E-02   8.020641599997831E-02
   7.695781591857118E-02   7.380190883441046E-02   7.073782554555670E-02
   6.776463013301050E-02   6.488132209472741E-02   6.208683857092477E-02
   5.938005668328869E-02   5.675979600748007E-02   5.422482119321547E-02
   5.177384473955484E-02   4.940552992544110E-02   4.711849388766763E-02
   4.491131083093616E-02   4.278251534811741E-02   4.073060582373407E-02
   3.875404789036273E-02   3.685127790623875E-02   3.502070642280374E-02
   3.326072161305249E-02   3.156969263498648E-02   2.994597290885715E-02
   2.838790329175130E-02   2.689381513801024E-02   2.546203323863077E-02
   2.409087863687866E-02   2.277867132067427E-02   2.152373279478956E-02
   2.032438853752045E-02   1.917897034733277E-02   1.808581858513834E-02
   1.704328431748152E-02   1.604973136516541E-02   1.510353826086443E-02
   1.420310011819426E-02   1.334683041364928E-02   1.253316268185310E-02
   1.176055212375699E-02   1.102747712681154E-02   1.033244069569890E-02
   9.673971791966066E-03   9.050626580879536E-03   8.460989583912172E-03
   7.903674735485292E-03   7.377326342925225E-03   6.880619948987888E-03
   6.412263096747398E-03   5.970995997111428E-03   5.555592099698804E-03
   5.164858568279208E-03   4.797636662419002E-03   4.452802027392982E-03
   4.129264894803486E-03   3.825970196691786E-03   3.541897596230320E-03
   3.276061438347383E-03   3.027510623858721E-03   2.795328410864311E-03
   2.578632147315008E-03   2.376572938764883E-03   2.188335255403088E-03
   2.013136482506468E-03   1.850226418473243E-03   1.698886724591490E-03
   1.558430330666256E-03   1.428200800578205E-03   1.307571661777352E-03
   1.195945702629658E-03   1.092754241434303E-03   9.974563708174157E-04
   9.095381810858023E-04   8.285119659935945E-04   7.539154142374456E-04
   6.853107898534103E-04   6.222841045423857E-04   5.644442848021734E-04
   5.114223365938718E-04   4.628705101194321E-04   4.184614671364752E-04
   3.778874530866274E-04   3.408594761651058E-04   3.071064953125450E-04
   2.763746189654221E-04   2.484263162591268E-04   2.230396422379697E-04
   2.000074784893461E-04   1.791367904850421E-04   1.602479027813538E-04
   1.431737931014552E-04   1.277594061983831E-04   1.138609882752571E-04
   1.013454426210708E-04   9.008970700574915E-05   7.998015326734181E-05
   7.091200941742755E-05   6.278880448823733E-05   5.552183624689132E-05
   4.902966180869715E-05   4.323761109288462E-05   3.807732298065837E-05
   3.348630395721375E-05   2.940750894654079E-05   2.578894398057210E-05
   2.258329028261336E-05   1.974754928909166E-05   1.724270808350657E-05
   1.503342467204523E-05   1.308773249173767E-05   1.137676350864568E-05
   9.874489236281987E-06   8.557478982055131E-06   7.404674612451788E-06
   6.397181115507488E-06   5.518072231645996E-06   4.752210420924255E-06
   4.086080435817223E-06   3.507635773614390E-06   3.006157290963109E-06
   2.572123274762451E-06   2.197090278159666E-06   1.873584047504003E-06
   1.594999885446387E-06   1.355511816621701E-06   1.149989945204914E-06
   9.739254177979900E-07   8.233624302840848E-07   6.948367432479688E-07
   5.853201969939218E-07   4.921707439341173E-07   4.130875428918011E-07
   3.460706865132246E-07   2.893851593092527E-07   2.415286497064470E-07
   2.012028647395014E-07   1.672880205438196E-07   1.388202055091111E-07
   1.149713357499807E-07   9.503144437196840E-08   7.839306681131369E-08
   6.453750426819642E-08   5.302276591394466E-08   4.347300812231627E-08
   3.556930545385251E-08   2.904160352094337E-08   2.366171819641290E-08
   1.923725892865107E-08   1.560636622026059E-08   1.263316465334693E-08
   1.020384324310313E-08   8.223284415998072E-09   6.612171586691308E-09
   5.304513193575795E-09   4.245578451576808E-09   3.390490829281826E-09
   2.701715480903630E-09   2.148290083004942E-09   1.704783786956552E-09
   1.350365875939399E-09   1.068024292951218E-09   8.439121402772627E-10
   6.668035040301180E-10   5.255620801177206E-10   4.132043163456709E-10
   3.240480492276987E-10   2.534817265971625E-10   1.977722813136816E-10
   1.539056050865224E-10   1.194544436873589E-10   9.246929406649622E-11
   7.138854267819229E-11   5.496465419292451E-11   4.220371119531342E-11
   3.231602791412529E-11   2.467592304892741E-11   1.878904601541354E-11
   1.426591428325267E-11   1.080054302921818E-11   8.153237485164910E-12
   6.136777903337524E-12   4.605361193295737E-12   3.445775687478672E-12
   2.570379379294313E-12   1.911530141695460E-12   1.417181293955782E-12
   1.047409525763947E-12   7.716864030441356E-13   5.667410030022660E-13
   4.148909645494306E-13   3.027435051194502E-13   2.201876855879560E-13
   1.596151933608218E-13   1.153198244654589E-13   8.303623451918746E-14
   5.958685879391760E-14   4.261255743969066E-14   3.036784080864400E-14
   2.156573315340526E-14   1.526065513043311E-14   1.076032161639014E-14
   7.559703796003501E-15   5.291708734707088E-15   3.690478871283319E-15
   2.564182942249737E-15   1.774918734955611E-15   1.223924563829383E-15
   8.407384337344500E-16   5.752815151331772E-16   3.920994492085778E-16
   2.661896685521579E-16   1.799898409999515E-16   1.212129821135361E-16
   8.129745647254471E-17   5.430172390045824E-17   3.611944690604219E-17
   2.392440677890378E-17   1.577958189111403E-17   1.036299914429485E-17
   6.776295457091465E-18   4.411610492617126E-18   2.859438823107802E-18
   1.845117176615834E-18   1.185242094446310E-18   7.578974374219460E-19
   4.824076108367910E-19   3.056314833214474E-19   1.927267227440081E-19
   1.209553748419500E-19   7.554871257857578E-20   4.695984881842780E-20
   2.904710754801310E-20   1.787863335268064E-20   1.094962874087324E-20
   6.672311787500651E-21   4.045229112737009E-21   2.439930982296299E-21
   1.464054126672994E-21   8.738949320239181E-22   5.188727936916522E-22
   3.064354708807614E-22   1.799990689189139E-22   1.051552521101270E-22
   6.109382640570377E-23   3.529760613962931E-23   2.027918173639055E-23
   1.158479318690978E-23   6.580123046940577E-24   3.715887490163759E-24
   2.086164716063045E-24   1.164304477975200E-24   6.459377233655205E-25
   3.562006888784986E-25   1.952326919635576E-25   1.063499773282483E-25
   5.757347662199578E-26   3.097280635643581E-26   1.655710060606512E-26
   8.794394670672103E-27   4.641064204284628E-27   2.433273395222904E-27
   1.267352446426692E-27   6.557046316112624E-28   3.369723953099341E-28
   1.719991188217242E-28   8.719151825419963E-29   4.389432539991483E-29
   2.194311790022157E-29   1.089214732676440E-29   5.368129402724033E-30
   2.626609557704030E-30   1.275849949790849E-30   6.151816368669989E-31
   2.944249654419257E-31   1.398559382166373E-31   6.593095607630613E-32
   3.084372809796481E-32
    </PP_CHI.2>
    <PP_CHI.3 size="1525" index="3" label="3D" l="2" occupation="0.200000000000000" n="3" cutoff_radius="5.34548805131155" ultrasoft_cutoff_radius="5.34548805131155">
   2.892329324817678E-15   2.980413866419337E-15   3.071180981685712E-15
   3.164712367147523E-15   3.261092207365256E-15   3.360407250700950E-15
   3.462746887397585E-15   3.568203230036329E-15   3.676871196444070E-15
   3.788848595125885E-15   3.904236213299283E-15   4.023137907609509E-15
   4.145660697607532E-15   4.271914862074873E-15   4.402014038281943E-15
   4.536075324269265E-15   4.674219384243597E-15   4.816570557183880E-15
   4.963256968754717E-15   5.114410646628104E-15   5.270167639317237E-15
   5.430668138629388E-15   5.596056605847971E-15   5.766481901757468E-15
   5.942097420628153E-15   6.123061228281318E-15   6.309536204359166E-15
   6.501690188927488E-15   6.699696133543048E-15   6.903732256921664E-15
   7.113982205347071E-15   7.330635217964972E-15   7.553886297111063E-15
   7.783936383826279E-15   8.020992538717288E-15   8.265268128325038E-15
   8.516983017169009E-15   8.776363765640150E-15   9.043643833920521E-15
   9.319063792113202E-15   9.602871536771661E-15   9.895322514023308E-15
   1.019667994948831E-14   1.050721508520040E-14   1.082720742374305E-14
   1.115694497982058E-14   1.149672453949092E-14   1.184685192729304E-14
   1.220764228150970E-14   1.257942033781315E-14   1.296252072154916E-14
   1.335728824892246E-14   1.376407823735452E-14   1.418325682529332E-14
   1.461520130176250E-14   1.506030044594712E-14   1.551895487712109E-14
   1.599157741523152E-14   1.647859345246462E-14   1.698044133612731E-14
   1.749757276318941E-14   1.803045318684140E-14   1.857956223543368E-14
   1.914539414417447E-14   1.972845819997489E-14   2.032927919984152E-14
   2.094839792322909E-14   2.158637161877859E-14   2.224377450587858E-14
   2.292119829150138E-14   2.361925270277930E-14   2.433856603580022E-14
   2.507978572111649E-14   2.584357890647609E-14   2.663063305730066E-14
   2.744165657545076E-14   2.827737943683531E-14   2.913855384843929E-14
   3.002595492536068E-14   3.094038138846639E-14   3.188265628329493E-14
   3.285362772085302E-14   3.385416964097262E-14   3.488518259891584E-14
   3.594759457593545E-14   3.704236181452057E-14   3.817046967907948E-14
   3.933293354283409E-14   4.053079970172445E-14   4.176514631614555E-14
   4.303708438136449E-14   4.434775872749119E-14   4.569834904990280E-14
   4.709007097104910E-14   4.852417713459485E-14   5.000195833288338E-14
   5.152474466873705E-14   5.309390675263941E-14   5.471085693637726E-14
   5.637705058425228E-14   5.809398738300750E-14   5.986321269164612E-14
   6.168631893235934E-14   6.356494702381366E-14   6.550078785808813E-14
   6.749558382259172E-14   6.955113036832926E-14   7.166927762592859E-14
   7.385193207088299E-14   7.610105823950782E-14   7.841868049715575E-14
   8.080688486028207E-14   8.326782087400029E-14   8.580370354681790E-14
   8.841681534429318E-14   9.110950824340853E-14   9.388420584950827E-14
   9.674340557770720E-14   9.968968090073240E-14   1.027256836652225E-13
   1.058541464785686E-13   1.090778851684450E-13   1.123998013172446E-13
   1.158228848736984E-13   1.193502168440312E-13   1.229849720650750E-13
   1.267304220618365E-13   1.305899379920902E-13   1.345669936806481E-13
   1.386651687460355E-13   1.428881518223907E-13   1.472397438794830E-13
   1.517238616438431E-13   1.563445411240804E-13   1.611059412435631E-13
   1.660123475837305E-13   1.710681762414049E-13   1.762779778035759E-13
   1.816464414432371E-13   1.871783991399570E-13   1.928788300289869E-13
   1.987528648828187E-13   2.048057907292263E-13   2.110430556099460E-13
   2.174702734842832E-13   2.240932292820538E-13   2.309178841104107E-13
   2.379503806192428E-13   2.451970485299745E-13   2.526644103327405E-13
   2.603591871570687E-13   2.682883048213488E-13   2.764589000665361E-13
   2.848783269797004E-13   2.935541636131988E-13   3.024942188054358E-13
   3.117065392093426E-13   3.211994165349087E-13   3.309813950122795E-13
   3.410612790821394E-13   3.514481413203020E-13   3.621513306036416E-13
   3.731804805247096E-13   3.845455180626210E-13   3.962566725180021E-13
   4.083244847200522E-13   4.207598165140002E-13   4.335738605374971E-13
   4.467781502947451E-13   4.603845705374289E-13   4.744053679617926E-13
   4.888531622314932E-13   5.037409573361475E-13   5.190821532957998E-13
   5.348905582218421E-13   5.511804007452479E-13   5.679663428232962E-13
   5.852634929363219E-13   6.030874196863673E-13   6.214541658099713E-13
   6.403802626177167E-13   6.598827448735212E-13   6.799791661270729E-13
   7.006876145132095E-13   7.220267290324572E-13   7.440157163273862E-13
   7.666743679698858E-13   7.900230782749105E-13   8.140828626567375E-13
   8.388753765442582E-13   8.644229348723182E-13   8.907485321666660E-13
   9.178758632405730E-13   9.458293445217642E-13   9.746341360288444E-13
   1.004316164017013E-12   1.034902144313432E-12   1.066419606363282E-12
   1.098896918008108E-12   1.132363311018789E-12   1.166848907406103E-12
   1.202384746532561E-12   1.239002813049925E-12   1.276736065687549E-12
   1.315618466917450E-12   1.355685013522829E-12   1.396971768097521E-12
   1.439515891504763E-12   1.483355676324468E-12   1.528530581319130E-12
   1.575081266949359E-12   1.623049631971042E-12   1.672478851147030E-12
   1.723413414107336E-12   1.775899165392801E-12   1.829983345718256E-12
   1.885714634492350E-12   1.943143193632289E-12   2.002320712712937E-12
   2.063300455490909E-12   2.126137307845540E-12   2.190887827179856E-12
   2.257610293326053E-12   2.326364761001253E-12   2.397213113860799E-12
   2.470219120197693E-12   2.545448490338356E-12   2.622968935786339E-12
   2.702850230167221E-12   2.785164272029570E-12   2.869985149558462E-12
   2.957389207259823E-12   3.047455114675619E-12   3.140263937191733E-12
   3.235899209002250E-12   3.334447008295847E-12   3.435996034731948E-12
   3.540637689276370E-12   3.648466156468320E-12   3.759578489192827E-12
   3.874074696034833E-12   3.992057831293650E-12   4.113634087738732E-12
   4.238912892190307E-12   4.368007004010846E-12   4.501032616596068E-12
   4.638109461956773E-12   4.779360918485704E-12   4.924914122006373E-12
   5.074900080203813E-12   5.229453790540295E-12   5.388714361762085E-12
   5.552825139106649E-12   5.721933833322976E-12   5.896192653621135E-12
   6.075758444670789E-12   6.260792827771877E-12   6.451462346324640E-12
   6.647938615729819E-12   6.850398477854019E-12   7.059024160199199E-12
   7.274003439919671E-12   7.495529812834070E-12   7.723802667584557E-12
   7.959027465099933E-12   8.201415923524218E-12   8.451186208777138E-12
   8.708563130918064E-12   8.973778346490083E-12   9.247070567026360E-12
   9.528685773906501E-12   9.818877439756184E-12   1.011790675658953E-11
   1.042604287089929E-11   1.074356312590670E-11   1.107075331118888E-11
   1.140790791990858E-11   1.175533041387758E-11   1.211333349669264E-11
   1.248223939518960E-11   1.286238014946901E-11   1.325409791175429E-11
   1.365774525435168E-11   1.407368548698866E-11   1.450229298381701E-11
   1.494395352037446E-11   1.539906462080829E-11   1.586803591567364E-11
   1.635128951062817E-11   1.684926036635532E-11   1.736239669005771E-11
   1.789116033887363E-11   1.843602723557900E-11   1.899748779694955E-11
   1.957604737516847E-11   2.017222671267699E-11   2.078656241087702E-11
   2.141960741310821E-11   2.207193150233342E-11   2.274412181398133E-11
   2.343678336440718E-11   2.415053959544759E-11   2.488603293555954E-11
   2.564392537804851E-11   2.642489907690613E-11   2.722965696079415E-11
   2.805892336572647E-11   2.891344468701963E-11   2.979399005109779E-11
   3.070135200775741E-11   3.163634724351425E-11   3.259981731667529E-11
   3.359262941479664E-11   3.461567713520944E-11   3.566988128931649E-11
   3.675619073138301E-11   3.787558321256803E-11   3.902906626096478E-11
   4.021767808844209E-11   4.144248852510343E-11   4.270459998220430E-11
   4.400514844439463E-11   4.534530449217963E-11   4.672627435551892E-11
   4.814930099951253E-11   4.961566524315088E-11   5.112668691213584E-11
   5.268372602681015E-11   5.428818402626459E-11   5.594150502972472E-11
   5.764517713635248E-11   5.940073376463255E-11   6.120975503254895E-11
   6.307386917979404E-11   6.499475403329052E-11   6.697413851734462E-11
   6.901380420979035E-11   7.111558694552539E-11   7.328137846888140E-11
   7.551312813631696E-11   7.781284467096448E-11   8.018259797061092E-11
   8.262452097074001E-11   8.514081156431206E-11   8.773373458000917E-11
   9.040562382072723E-11   9.315888416414920E-11   9.599599372728979E-11
   9.891950609695997E-11   1.019320526281594E-10   1.050363448124649E-10
   1.082351767185468E-10   1.115314275070092E-10   1.149280640218196E-10
   1.184281434606573E-10   1.220348161265871E-10   1.257513282635327E-10
   1.295810249781031E-10   1.335273532504014E-10   1.375938650365257E-10
   1.417842204655553E-10   1.461021911338989E-10   1.505516634999696E-10
   1.551366423822438E-10   1.598612545638501E-10   1.647297525069348E-10
   1.697465181801451E-10   1.749160670026767E-10   1.802430519084339E-10
   1.857322675339622E-10   1.913886545339213E-10   1.972173040279823E-10
   2.032234621831533E-10   2.094125349356566E-10   2.157900928566073E-10
   2.223618761658726E-10   2.291337998986254E-10   2.361119592292414E-10
   2.433026349573326E-10   2.507122991608542E-10   2.583476210213720E-10
   2.662154728267346E-10   2.743229361565547E-10   2.826773082560621E-10
   2.912861086040700E-10   3.001570856809637E-10   3.092982239428025E-10
   3.187177510078149E-10   3.284241450617508E-10   3.384261424887618E-10
   3.487327457346702E-10   3.593532314097122E-10   3.702971586380411E-10
   3.815743776615097E-10   3.931950387054743E-10   4.051696011146011E-10
   4.175088427668944E-10   4.302238697744250E-10   4.433261264794831E-10
   4.568274057551575E-10   4.707398596196137E-10   4.850760101736178E-10
   4.998487608711558E-10   5.150714081332884E-10   5.307576533157004E-10
   5.469216150407083E-10   5.635778419048304E-10   5.807413255733550E-10
   5.984275142736950E-10   6.166523266996666E-10   6.354321663392148E-10
   6.547839362384773E-10   6.747250542154705E-10   6.952734685371019E-10
   7.164476740736058E-10   7.382667289449538E-10   7.607502716742084E-10
   7.839185388632774E-10   8.077923834069566E-10   8.323932932616698E-10
   8.577434107857923E-10   8.838655526689653E-10   9.107832304683382E-10
   9.385206717702226E-10   9.671028419962018E-10   9.965554668733284E-10
   1.026905055588626E-09   1.058178924648734E-09   1.090405222466181E-09
   1.123612954694405E-09   1.157832010334326E-09   1.193093188635957E-09
   1.229428226819292E-09   1.266869828639389E-09   1.305451693821382E-09
   1.345208548391893E-09   1.386176175934160E-09   1.428391449795008E-09
   1.471892366272635E-09   1.516718078815103E-09   1.562908933260305E-09
   1.610506504149110E-09   1.659553632144404E-09   1.710094462589652E-09
   1.762174485241743E-09   1.815840575213833E-09   1.871141035165053E-09
   1.928125638775051E-09   1.986845675542494E-09   2.047353996947853E-09
   2.109705064022014E-09   2.173954996363521E-09   2.240161622648576E-09
   2.308384532679252E-09   2.378685131016758E-09   2.451126692248033E-09
   2.525774417935406E-09   2.602695495300564E-09   2.681959157695664E-09
   2.763636746916001E-09   2.847801777410307E-09   2.934530002446469E-09
   3.023899482292252E-09   3.115990654472327E-09   3.210886406164862E-09
   3.308672148802866E-09   3.409435894947347E-09   3.513268337501544E-09
   3.620262931337496E-09   3.730515977408396E-09   3.844126709422417E-09
   3.961197383156088E-09   4.081833368487499E-09   4.206143244232223E-09
   4.334238895867299E-09   4.466235616231209E-09   4.602252209290476E-09
   4.742411097066274E-09   4.886838429817259E-09   5.035664199577842E-09
   5.189022357153980E-09   5.347050932681871E-09   5.509892159857996E-09
   5.677692603952334E-09   5.850603293719913E-09   6.028779857329464E-09
   6.212382662431465E-09   6.401576960491635E-09   6.596533035519783E-09
   6.797426357327822E-09   7.004437739454924E-09   7.217753501901862E-09
   7.437565638821050E-09   7.664071991313152E-09   7.897476425485793E-09
   8.137989015934522E-09   8.385826234811301E-09   8.641211146650487E-09
   8.904373609127733E-09   9.175550479932449E-09   9.454985829939992E-09
   9.742931162875394E-09   1.003964564166629E-08   1.034539632168879E-08
   1.066045839111610E-08   1.098511541858630E-08   1.131965960841199E-08
   1.166439206356159E-08   1.201962305664885E-08   1.238567230917451E-08
   1.276286927927125E-08   1.315155345821103E-08   1.355207467594146E-08
   1.396479341592624E-08   1.439008113957295E-08   1.482832062054005E-08
   1.527990628922404E-08   1.574524458773665E-08   1.622475433569141E-08
   1.671886710712901E-08   1.722802761892018E-08   1.775269413099605E-08
   1.829333885876571E-08   1.885044839809230E-08   1.942452416320988E-08
   2.001608283797519E-08   2.062565684086025E-08   2.125379480410437E-08
   2.190106206745623E-08   2.256804118695089E-08   2.325533245917898E-08
   2.396355446152006E-08   2.469334460882607E-08   2.544535972705589E-08
   2.622027664437687E-08   2.701879280026534E-08   2.784162687315406E-08
   2.868951942719136E-08   2.956323357869365E-08   3.046355568289097E-08
   3.139129604158362E-08   3.234728963234628E-08   3.333239685993570E-08
   3.434750433057811E-08   3.539352564983263E-08   3.647140224474861E-08
   3.758210421105680E-08   3.872663118615598E-08   3.990601324868071E-08
   4.112131184545929E-08   4.237362074669592E-08   4.366406703023639E-08
   4.499381209580232E-08   4.636405271010664E-08   4.777602208379052E-08
   4.923099098114989E-08   5.073026886365067E-08   5.227520506826025E-08
   5.386719002165622E-08   5.550765649140357E-08   5.719808087522642E-08
   5.893998452953322E-08   6.073493513839128E-08   6.258454812418104E-08
   6.449048810119938E-08   6.645447037351937E-08   6.847826247845290E-08
   7.056368577700546E-08   7.271261709275265E-08   7.492699040061261E-08
   7.720879856703289E-08   7.956009514315744E-08   8.198299621258543E-08
   8.447968229538431E-08   8.705240031006859E-08   8.970346559530946E-08
   9.243526399319269E-08   9.525025399589872E-08   9.815096895773394E-08
   1.011400193745041E-07   1.042200952322777E-07   1.073939684276525E-07
   1.106644952616999E-07   1.140346190098317E-07   1.175073725698972E-07
   1.210858811908933E-07   1.247733652847405E-07   1.285731433236522E-07
   1.324886348257029E-07   1.365233634312777E-07   1.406809600731717E-07
   1.449651662431852E-07   1.493798373581544E-07   1.539289462284424E-07
   1.586165866320063E-07   1.634469769972566E-07   1.684244641980156E-07
   1.735535274639887E-07   1.788387824102606E-07   1.842849851894409E-07
   1.898970367701878E-07   1.956799873459562E-07   2.016390408779339E-07
   2.077795597762443E-07   2.141070697236284E-07   2.206272646459338E-07
   2.273460118338810E-07   2.342693572207099E-07   2.414035308204445E-07
   2.487549523316661E-07   2.563302369118262E-07   2.641362011272884E-07
   2.721798690844469E-07   2.804684787474239E-07   2.890094884480255E-07
   2.978105835938022E-07   3.068796835802408E-07   3.162249489132926E-07
   3.258547885486386E-07   3.357778674542826E-07   3.460031144032620E-07
   3.565397300034762E-07   3.673971949718437E-07   3.785852786602139E-07
   3.901140478406957E-07   4.019938757582847E-07   4.142354514589194E-07
   4.268497894013417E-07   4.398482393613868E-07   4.532424966375988E-07
   4.670446125673278E-07   4.812670053627512E-07   4.959224712765427E-07
   5.110241961072111E-07   5.265857670544320E-07   5.426211849350162E-07
   5.591448767704683E-07   5.761717087574399E-07   5.937169996327032E-07
   6.117965344446460E-07   6.304265787436352E-07   6.496238932039821E-07
   6.694057486906227E-07   6.897899417840284E-07   7.107948107772648E-07
   7.324392521595519E-07   7.547427376011063E-07   7.777253314544872E-07
   8.014077087881425E-07   8.258111739683252E-07   8.509576798060306E-07
   8.768698472861228E-07   9.035709858963281E-07   9.310851145743173E-07
   9.594369832916532E-07   9.886520952939293E-07   1.018756730017044E-06
   1.049777966700121E-06   1.081743708716249E-06   1.114682708642821E-06
   1.148624594093921E-06   1.183599894337912E-06   1.219640067724047E-06
   1.256777529942648E-06   1.295045683144188E-06   1.334478945943293E-06
   1.375112784334570E-06   1.416983743547888E-06   1.460129480871651E-06
   1.504588799473396E-06   1.550401683248006E-06   1.597609332724698E-06
   1.646254202064891E-06   1.696380037184063E-06   1.748031915031666E-06
   1.801256284064224E-06   1.856101005947803E-06   1.912615398527111E-06
   1.970850280099647E-06   2.030858015034448E-06   2.092692560776193E-06
   2.156409516276657E-06   2.222066171896770E-06   2.289721560823850E-06
   2.359436512049907E-06   2.431273704958324E-06   2.505297725567632E-06
   2.581575124482576E-06   2.660174476604189E-06   2.741166442652116E-06
   2.824623832554095E-06   2.910621670759109E-06   2.999237263532439E-06
   3.090550268292628E-06   3.184642765052122E-06   3.281599330025297E-06
   3.381507111469403E-06   3.484455907826005E-06   3.590538248232510E-06
   3.699849475475440E-06   3.812487831459342E-06   3.928554545267337E-06
   4.048153923891706E-06   4.171393445715204E-06   4.298383856826232E-06
   4.429239270253512E-06   4.564077268208485E-06   4.703019007426242E-06
   4.846189327698655E-06   4.993716863696033E-06   5.145734160176629E-06
   5.302377790686253E-06   5.463788479853381E-06   5.630111229388191E-06
   5.801495447897321E-06   5.978095084629452E-06   6.160068767270252E-06
   6.347579943908772E-06   6.540797029301117E-06   6.739893555560830E-06
   6.945048327409460E-06   7.156445582124649E-06   7.374275154327290E-06
   7.598732645753410E-06   7.830019600160963E-06   8.068343683526001E-06
   8.313918869687414E-06   8.566965631604243E-06   8.827711138394254E-06
   9.096389458327778E-06   9.373241767955734E-06   9.658516567556191E-06
   9.952469903089424E-06   1.025536559485689E-05   1.056747547306543E-05
   1.088907962050413E-05   1.122046662254702E-05   1.156193382470184E-05
   1.191378759793080E-05   1.227634361197659E-05   1.264992711693362E-05
   1.303487323331142E-05   1.343152725084468E-05   1.384024493631183E-05
   1.426139285063177E-05   1.469534867551653E-05   1.514250154996556E-05
   1.560325241689591E-05   1.607801438021145E-05   1.656721307262287E-05
   1.707128703453950E-05   1.759068810436377E-05   1.812588182052824E-05
   1.867734783562571E-05   1.924558034299297E-05   1.983108851611914E-05
   2.043439696126104E-05   2.105604618365829E-05   2.169659306775355E-05
   2.235661137183394E-05   2.303669223752283E-05   2.373744471456297E-05
   2.445949630134567E-05   2.520349350165287E-05   2.597010239809367E-05
   2.676000924273008E-05   2.757392106540166E-05   2.841256630027328E-05
   2.927669543114518E-05   3.016708165608100E-05   3.108452157192447E-05
   3.202983587929294E-05   3.300387010865189E-05   3.400749536809317E-05
   3.504160911345648E-05   3.610713594145315E-05   3.720502840646923E-05
   3.833626786174513E-05   3.950186532564832E-05   4.070286237377701E-05
   4.194033205765278E-05   4.321537985078283E-05   4.452914462289395E-05
   4.588279964316370E-05   4.727755361329743E-05   4.871465173132404E-05
   5.019537678700825E-05   5.172105028980201E-05   5.329303363028466E-05
   5.491272927606698E-05   5.658158200316334E-05   5.830108016386284E-05
   6.007275699216010E-05   6.189819194783601E-05   6.377901210030889E-05
   6.571689355340829E-05   6.771356291225498E-05   6.977079879346433E-05
   7.189043337992340E-05   7.407435402142734E-05   7.632450488249551E-05
   7.864288863872391E-05   8.103156822306911E-05   8.349266862349523E-05
   8.602837873345673E-05   8.864095325672702E-05   9.133271466812833E-05
   9.410605523175474E-05   9.696343907832893E-05   9.990740434337377E-05
   1.029405653679264E-04   1.060656149635685E-04   1.092853267435936E-04
   1.126025575221816E-04   1.160202497835000E-04   1.195414342227005E-04
   1.231692323608344E-04   1.269068592357602E-04   1.307576261711745E-04
   1.347249436259490E-04   1.388123241260163E-04   1.430233852811048E-04
   1.473618528886780E-04   1.518315641275004E-04   1.564364708433099E-04
   1.611806429291387E-04   1.660682718028931E-04   1.711036739848640E-04
   1.762912947779094E-04   1.816357120531163E-04   1.871416401438209E-04
   1.928139338509378E-04   1.986575925626138E-04   2.046777644913075E-04
   2.108797510314578E-04   2.172690112409900E-04   2.238511664499817E-04
   2.306320049998879E-04   2.376174871168073E-04   2.448137499223523E-04
   2.522271125857667E-04   2.598640816210190E-04   2.677313563326848E-04
   2.758358344145156E-04   2.841846177046817E-04   2.927850181017620E-04
   3.016445636456433E-04   3.107710047675816E-04   3.201723207137752E-04
   3.298567261468754E-04   3.398326779299743E-04   3.501088820976857E-04
   3.606943010190371E-04   3.715981607569849E-04   3.828299586294579E-04
   3.943994709769323E-04   4.063167611416362E-04   4.185921876635753E-04
   4.312364126986719E-04   4.442604106644010E-04   4.576754771184061E-04
   4.714932378756711E-04   4.857256583699191E-04   5.003850532649993E-04
   5.154840963221280E-04   5.310358305289231E-04   5.470536784962812E-04
   5.635514531292143E-04   5.805433685778732E-04   5.980440514750421E-04
   6.160685524665022E-04   6.346323580407070E-04   6.537514026643219E-04
   6.734420812302208E-04   6.937212618246298E-04   7.146062988201519E-04
   7.361150463014797E-04   7.582658718306473E-04   7.810776705587296E-04
   8.045698796909349E-04   8.287624933120779E-04   8.536760775794467E-04
   8.793317862900933E-04   9.057513768296021E-04   9.329572265093870E-04
   9.609723492995618E-04   9.898204129644094E-04   1.019525756607464E-03
   1.050113408633149E-03   1.081609105131910E-03   1.114039308695651E-03
   1.147431227670268E-03   1.181812835851923E-03   1.217212892633619E-03
   1.253660963608494E-03   1.291187441636104E-03   1.329823568377793E-03
   1.369601456307051E-03   1.410554111200546E-03   1.452715455115292E-03
   1.496120349857115E-03   1.540804620945330E-03   1.586805082078175E-03
   1.634159560103239E-03   1.682906920496684E-03   1.733087093354697E-03
   1.784741099900129E-03   1.837911079506757E-03   1.892640317243116E-03
   1.948973271937253E-03   2.006955604763127E-03   2.066634208348724E-03
   2.128057236405243E-03   2.191274133875904E-03   2.256335667602181E-03
   2.323293957504288E-03   2.392202508271882E-03   2.463116241559912E-03
   2.536091528683484E-03   2.611186223804446E-03   2.688459697601238E-03
   2.767972871412219E-03   2.849788251841357E-03   2.933969965813673E-03
   3.020583796066350E-03   3.109697217059776E-03   3.201379431291033E-03
   3.295701405990605E-03   3.392735910181114E-03   3.492557552074876E-03
   3.595242816784928E-03   3.700870104322020E-03   3.809519767847542E-03
   3.921274152150041E-03   4.036217632310264E-03   4.154436652516953E-03
   4.276019764992769E-03   4.401057668986659E-03   4.529643249785838E-03
   4.661871617697283E-03   4.797840146945098E-03   4.937648514426595E-03
   5.081398738266049E-03   5.229195216101222E-03   5.381144763033591E-03
   5.537356649168990E-03   5.697942636670793E-03   5.863017016243327E-03
   6.032696642958146E-03   6.207100971330992E-03   6.386352089551979E-03
   6.570574752766189E-03   6.759896415296263E-03   6.954447261692907E-03
   7.154360236493188E-03   7.359771072560405E-03   7.570818317873125E-03
   7.787643360624151E-03   8.010390452483921E-03   8.239206729875664E-03
   8.474242233102796E-03   8.715649923161801E-03   8.963585696066432E-03
   9.218208394501732E-03   9.479679816618704E-03   9.748164721772624E-03
   1.002383083300037E-02   1.030684883602403E-02   1.059739237456016E-02
   1.089563804170617E-02   1.120176536716697E-02   1.151595680007726E-02
   1.183839768716680E-02   1.216927624600795E-02   1.250878353307719E-02
   1.285711340635451E-02   1.321446248217715E-02   1.358103008605709E-02
   1.395701819716470E-02   1.434263138617422E-02   1.473807674616110E-02
   1.514356381623509E-02   1.555930449758817E-02   1.598551296163181E-02
   1.642240554989451E-02   1.687020066534744E-02   1.732911865482397E-02
   1.779938168219805E-02   1.828121359198614E-02   1.877483976303924E-02
   1.928048695199329E-02   1.979838312615114E-02   2.032875728547483E-02
   2.087183927337355E-02   2.142785957598321E-02   2.199704910964363E-02
   2.257963899629360E-02   2.317586032651980E-02   2.378594391001360E-02
   2.441012001321108E-02   2.504861808391532E-02   2.570166646272726E-02
   2.636949208114117E-02   2.705232014619465E-02   2.775037381160016E-02
   2.846387383532592E-02   2.919303822363935E-02   2.993808186167480E-02
   3.069921613064092E-02   3.147664851184145E-02   3.227058217774479E-02
   3.308121557040589E-02   3.390874196761635E-02   3.475334903723536E-02
   3.561521838023783E-02   3.649452506310277E-02   3.739143714025882E-02
   3.830611516740236E-02   3.923871170660732E-02   4.018937082425503E-02
   4.115822758292634E-02   4.214540752851832E-02   4.315102617397196E-02
   4.417518848112572E-02   4.521798834234309E-02   4.627950806370038E-02
   4.735981785166014E-02   4.845897530530087E-02   4.957702491631831E-02
   5.071399757916259E-02   5.186991011382325E-02   5.304476480392358E-02
   5.423854895293349E-02   5.545123446145492E-02   5.668277742867781E-02
   5.793311778124177E-02   5.920217893287118E-02   6.048986747827535E-02
   6.179607292492157E-02   6.312066746639419E-02   6.446350580114225E-02
   6.582442500049865E-02   6.720324442991146E-02   6.859976572737105E-02
   7.001377284303580E-02   7.144503214405623E-02   7.289329258856755E-02
   7.435828597276321E-02   7.583972725487211E-02   7.733731495974108E-02
   7.885073166756505E-02   8.037964459011089E-02   8.192370623754286E-02
   8.348255517867860E-02   8.505581689717601E-02   8.664310474578024E-02
   8.824402100033568E-02   8.985815801479372E-02   9.148509947792124E-02
   9.312442177183337E-02   9.477569543184000E-02   9.643848670640388E-02
   9.811235921526287E-02   9.979687570296632E-02   1.014915998842209E-01
   1.031960983765300E-01   1.049099427146491E-01   1.066327114403662E-01
   1.083639922600570E-01   1.101033842613600E-01   1.118505001791689E-01
   1.136049686999578E-01   1.153664367922406E-01   1.171345720497213E-01
   1.189090650324290E-01   1.206896315898590E-01   1.224760151488479E-01
   1.242679889476326E-01   1.260653581962674E-01   1.278679621423158E-01
   1.296756760195079E-01   1.314884128558709E-01   1.333061251167019E-01
   1.351288061566994E-01   1.369564914545801E-01   1.387892596026340E-01
   1.406272330229220E-01   1.424705783812018E-01   1.443195066692418E-01
   1.461742729259493E-01   1.480351755677480E-01   1.499025552989319E-01
   1.517767935733406E-01   1.536583105797066E-01   1.555475627244697E-01
   1.574450395878255E-01   1.593512603313350E-01   1.612667695386834E-01
   1.631921324752216E-01   1.651279297568829E-01   1.670747514250517E-01
   1.690331904311099E-01   1.710038355428456E-01   1.729872636948056E-01
   1.749840318161790E-01   1.769946681830276E-01   1.790196633567774E-01
   1.810594607879296E-01   1.831144471830256E-01   1.851849427539798E-01
   1.872711914919263E-01   1.893733516325008E-01   1.914914865056895E-01
   1.936255559904978E-01   1.957754088220164E-01   1.979407760249492E-01
   2.001212657720059E-01   2.023163599859560E-01   2.045254130183756E-01
   2.067476527433561E-01   2.089821843972074E-01   2.112279974712161E-01
   2.134839759186436E-01   2.157489118632077E-01   2.180215228869393E-01
   2.203004728218634E-01   2.225843957622259E-01   2.248719227399935E-01
   2.271617101521120E-01   2.294524685770559E-01   2.317429900512573E-01
   2.340321711703384E-01   2.363190285087529E-01   2.386027017825623E-01
   2.408824388756754E-01   2.431575567516774E-01   2.454273897610105E-01
   2.476912737315153E-01   2.499485453574930E-01   2.521985427659031E-01
   2.544406060879190E-01   2.566740780374021E-01   2.588983044978028E-01
   2.611126351188572E-01   2.633164239242436E-01   2.655090299311308E-01
   2.676898177821722E-01   2.698581583901615E-01   2.720134295950948E-01
   2.741550168328977E-01   2.762823138145203E-01   2.783947232135100E-01
   2.804916573595226E-01   2.825725389345584E-01   2.846368016679897E-01
   2.866838910257202E-01   2.887132648880702E-01   2.907243942102289E-01
   2.927167636584032E-01   2.946898722140858E-01   2.966432337382315E-01
   2.985763774865615E-01   3.004888485667293E-01   3.023802083277605E-01
   3.042500346719153E-01   3.060979222790182E-01   3.079234827335318E-01
   3.097263445449013E-01   3.115061530521750E-01   3.132625702046763E-01
   3.149952742114558E-01   3.167039590534175E-01   3.183883338534021E-01
   3.200481221010818E-01   3.216830607312944E-01   3.232928990563426E-01
   3.248773975548233E-01   3.264363265216575E-01   3.279694645861672E-01
   3.294765971071924E-01   3.309575144563721E-01   3.324120102027632E-01
   3.338398792138514E-01   3.352409156898044E-01   3.366149111493576E-01
   3.379616523870169E-01   3.392809194223309E-01   3.405724834627822E-01
   3.418361049023146E-01   3.430715313776948E-01   3.442784959047615E-01
   3.454567151161804E-01   3.466058876215500E-01   3.477256925096620E-01
   3.488157880113737E-01   3.498758103399454E-01   3.509053727238322E-01
   3.519040646448481E-01   3.528714512923257E-01   3.538070732414483E-01
   3.547104463613237E-01   3.555810619556661E-01   3.564183871361549E-01
   3.572218654257255E-01   3.579909175861990E-01   3.587249426618787E-01
   3.594233192280186E-01   3.600854068304730E-01   3.607105476004112E-01
   3.612980680257616E-01   3.618472808590759E-01   3.623574871398271E-01
   3.628279783078264E-01   3.632580383834602E-01   3.636469461899062E-01
   3.639939775923438E-01   3.642984077295248E-01   3.645595132138774E-01
   3.647765742776219E-01   3.649488768441736E-01   3.650757145063876E-01
   3.651563903959587E-01   3.651902189314896E-01   3.651765274363479E-01
   3.651146576214127E-01   3.650039669320715E-01   3.648438297633315E-01
   3.646336385515178E-01   3.643728047556533E-01   3.640607597461066E-01
   3.636969556222974E-01   3.632808659849348E-01   3.628119866912681E-01
   3.622898366238383E-01   3.617139585040601E-01   3.610839197812958E-01
   3.603993136256374E-01   3.596597600481999E-01   3.588649071661958E-01
   3.580144326212710E-01   3.571080451485833E-01   3.561454862812465E-01
   3.551265321604102E-01   3.540509954061799E-01   3.529187269897367E-01
   3.517296180335635E-01   3.504836014559753E-01   3.491806533695817E-01
   3.478207941421561E-01   3.464040890337378E-01   3.449306483362741E-01
   3.434006269617603E-01   3.418142234510655E-01   3.401716784070373E-01
   3.384732723900439E-01   3.367193233492338E-01   3.349101836955510E-01
   3.330462371500106E-01   3.311278955202376E-01   3.291555955678119E-01
   3.271297961272579E-01   3.250509756243876E-01   3.229196301181338E-01
   3.207362719576933E-01   3.185014291083881E-01   3.162156451583503E-01
   3.138794799772114E-01   3.114935109605659E-01   3.090583347628106E-01
   3.065745693980079E-01   3.040428565748405E-01   3.014638641277887E-01
   2.988382884118179E-01   2.961668565408304E-01   2.934503283692126E-01
   2.906894981389367E-01   2.878851957397857E-01   2.850382875554247E-01
   2.821496768915761E-01   2.792203040031819E-01   2.762511457543322E-01
   2.732432149574150E-01   2.701975594463842E-01   2.671152609434489E-01
   2.639974337793291E-01   2.608452235250943E-01   2.576598055891338E-01
   2.544423838266481E-01   2.511941892021548E-01   2.479164785375551E-01
   2.446105333701487E-01   2.412776589381576E-01   2.379191833041168E-01
   2.345364566197468E-01   2.311308505304968E-01   2.277037577130329E-01
   2.242565915348050E-01   2.207907858214244E-01   2.173077947148419E-01
   2.138090926031845E-01   2.102961741015128E-01   2.067705540616402E-01
   2.032337675884636E-01   1.996873700399324E-01   1.961329369878023E-01
   1.925720641166483E-01   1.890063670392228E-01   1.854374810071336E-01
   1.818670604969511E-01   1.782967786532510E-01   1.747283265717202E-01
   1.711634124073144E-01   1.676037602945173E-01   1.640511090690278E-01
   1.605072107826355E-01   1.569738290056401E-01   1.534527369138819E-01
   1.499457151602467E-01   1.464545495333467E-01   1.429810284089256E-01
   1.395269400023397E-01   1.360940694331869E-01   1.326841956157516E-01
   1.292990879913589E-01   1.259405031209550E-01   1.226101811582170E-01
   1.193098422252121E-01   1.160411827140615E-01   1.128058715391900E-01
   1.096055463655643E-01   1.064418098388198E-01   1.033162258433698E-01
   1.002303158144750E-01   9.718555512985150E-02   9.418336960572048E-02
   9.122513212128025E-02   8.831215939443603E-02   8.544570893027660E-02
   8.262697616227246E-02   7.985709180451699E-02   7.713711943156153E-02
   7.446805330054797E-02   7.185081642843286E-02   6.928625893516177E-02
   6.677515666170969E-02   6.431821006998013E-02   6.191604342966837E-02
   5.956920429537014E-02   5.727816327546176E-02   5.504331409261865E-02
   5.286497393428175E-02   5.074338408994032E-02   4.867871087078323E-02
   4.667104680609407E-02   4.472041210972049E-02   4.282675640905660E-02
   4.098996072820273E-02   3.920983971669526E-02   3.748614411408484E-02
   3.581856344110310E-02   3.420672890774086E-02   3.265021652868700E-02
   3.114855043684467E-02   2.970120638607834E-02   2.830761543496108E-02
   2.696716780409310E-02   2.567921690055538E-02   2.444308350425188E-02
   2.325806011229067E-02   2.212341543916611E-02   2.103839907234627E-02
   2.000224628495416E-02   1.901418300957843E-02   1.807343097988369E-02
   1.717921304966528E-02   1.631634333687950E-02   1.548450100145609E-02
   1.468332023080235E-02   1.391239297758372E-02   1.317127173337168E-02
   1.245947232315557E-02   1.177647670854774E-02   1.112173578747214E-02
   1.049467217873254E-02   9.894682980506858E-03   9.321142492486799E-03
   8.773404892070444E-03   8.250806855717599E-03   7.752670117289612E-03
   7.278303955912876E-03   6.827007606619596E-03   6.398072587733474E-03
   5.990784939779501E-03   5.604427370732633E-03   5.238281304790917E-03
   4.891628830199931E-03   4.563754544093649E-03   4.253947292198264E-03
   3.961501801922129E-03   3.685720208746150E-03   3.425913468358915E-03
   3.181402701175934E-03   2.951519940136664E-03   2.733238375922817E-03
   2.528756263104786E-03   2.337382197157769E-03   2.158447026335133E-03
   1.991304176134566E-03   1.835328992106379E-03   1.689918957753396E-03
   1.554493618822878E-03   1.428494460057008E-03   1.311384736422650E-03
   1.202649261014915E-03   1.101794152003744E-03   1.008346540884014E-03
   9.218542446301427E-04   8.418854042038159E-04   7.680280919936546E-04
   6.998898907796321E-04   6.370974468303998E-04   5.792959997434584E-04
   5.261488916269718E-04   4.773370581982922E-04   4.325585043384791E-04
   3.915277665950579E-04   3.539753650673159E-04   3.196472470406692E-04
   2.883042246596017E-04   2.597214088431984E-04   2.336876415543466E-04
   2.100049284339458E-04   1.884878737060078E-04   1.689631191490653E-04
   1.512687888148862E-04   1.352539410578704E-04   1.207780293186349E-04
   1.077103729840015E-04   9.592963952369444E-05   8.532333898237763E-05
   7.578733178491405E-05   6.722535069367703E-05   5.954853764002449E-05
   5.267499603831266E-05   4.652935908060522E-05   4.104237440409648E-05
   3.615050542160843E-05   3.179554950880011E-05   2.792427315023379E-05
   2.448806406050123E-05   2.144260021641541E-05   1.874753566200533E-05
   1.636620287982261E-05   1.426533145992626E-05   1.241478274188143E-05
   1.078730005512950E-05   9.358274139089717E-06   8.105523286200929E-06
   7.009087718644104E-06   6.051037682503151E-06   5.215294721392778E-06
   4.487465574855164E-06   3.854688134823067E-06   3.305488885873524E-06
   2.829651251542731E-06   2.418094269323188E-06   2.062761020792364E-06
   1.756516250301641E-06   1.493052615457757E-06   1.266805024933560E-06
   1.072872533633586E-06   9.069472816046939E-07   7.652499810263745E-07
   6.444714748551173E-07   5.417199109640593E-07   4.544730966596402E-07
   3.805356200356985E-07   3.180003465246260E-07   2.652139210253639E-07
   2.207459279487519E-07   1.833613832601073E-07   1.519962539737083E-07
   1.257357214390630E-07   1.037949250470107E-07   8.550194258448873E-08
   7.028278230583751E-08   5.764817980676161E-08   4.718200993960906E-08
   3.853114026366677E-08   3.139656786193932E-08   2.552569576741573E-08
   2.070561872793552E-08   1.675730060877051E-08   1.353053740277102E-08
   1.089961061257593E-08   8.759545716514551E-09   7.022899562384742E-09
   5.617008887691199E-09   4.481639780229307E-09   3.566984810018804E-09
   2.831960824609726E-09   2.242766047324556E-09   1.771660194679371E-09
   1.395935877173587E-09   1.097053608088947E-09   8.599163578965703E-10
   6.722627958267444E-10   5.241611918680904E-10   4.075884467905467E-10
   3.160809075728260E-10   2.444455416117640E-10   1.885217139227030E-10
   1.449852637015891E-10   1.111878345017671E-10   8.502549821852865E-11
   6.483164742465100E-11   4.928993181350088E-11   3.736369923305139E-11
   2.823898498766265E-11   2.127858811183719E-11   1.598519207653724E-11
   1.197184041195187E-11   8.938374315213724E-12   6.652687619346031E-12
   4.935861667048037E-12
    </PP_CHI.3>
  </PP_PSWFC>
  <PP_RHOATOM size="1525">
   1.065836205905405E-10   1.087367525539327E-10   1.109333806683444E-10
   1.131743836143168E-10   1.154606578229148E-10   1.177931178343130E-10
   1.201726966636228E-10   1.226003461741118E-10   1.250770374579609E-10
   1.276037612247149E-10   1.301815281975786E-10   1.328113695177208E-10
   1.354943371567432E-10   1.382315043374840E-10   1.410239659633217E-10
   1.438728390561508E-10   1.467792632032041E-10   1.497444010129041E-10
   1.527694385799220E-10   1.558555859596313E-10   1.590040776521453E-10
   1.622161730961346E-10   1.654931571726187E-10   1.688363407189363E-10
   1.722470610530968E-10   1.757266825087264E-10   1.792765969808186E-10
   1.828982244825120E-10   1.865930137131132E-10   1.903624426375969E-10
   1.942080190778110E-10   1.981312813156261E-10   2.021337987082689E-10
   2.062171723160842E-10   2.103830355429829E-10   2.146330547898242E-10
   2.189689301209984E-10   2.233923959444746E-10   2.279052217055883E-10
   2.325092125948425E-10   2.372062102700081E-10   2.419980935928117E-10
   2.468867793805048E-10   2.518742231726173E-10   2.569624200131990E-10
   2.621534052488640E-10   2.674492553429561E-10   2.728520887061617E-10
   2.783640665439034E-10   2.839873937208502E-10   2.897243196428929E-10
   2.955771391569362E-10   3.015481934688700E-10   3.076398710800810E-10
   3.138546087428863E-10   3.201948924352658E-10   3.266632583552872E-10
   3.332622939356198E-10   3.399946388785400E-10   3.468629862118513E-10
   3.538700833661278E-10   3.610187332737257E-10   3.683117954899894E-10
   3.757521873371189E-10   3.833428850711321E-10   3.910869250724101E-10
   3.989874050602861E-10   4.070474853321779E-10   4.152703900277493E-10
   4.236594084186080E-10   4.322178962240572E-10   4.409492769534292E-10
   4.498570432755364E-10   4.589447584157841E-10   4.682160575815063E-10
   4.776746494161021E-10   4.873243174825383E-10   4.971689217768278E-10
   5.072124002720792E-10   5.174587704937370E-10   5.279121311266476E-10
   5.385766636545893E-10   5.494566340329187E-10   5.605563943950090E-10
   5.718803847931646E-10   5.834331349747041E-10   5.952192661939136E-10
   6.072434930606123E-10   6.195106254260640E-10   6.320255703069744E-10
   6.447933338483716E-10   6.578190233261230E-10   6.711078491899215E-10
   6.846651271475302E-10   6.984962802911416E-10   7.126068412666789E-10
   7.270024544869377E-10   7.416888783894226E-10   7.566719877398001E-10
   7.719577759818813E-10   7.875523576350839E-10   8.034619707403187E-10
   8.196929793552908E-10   8.362518761002074E-10   8.531452847549153E-10
   8.703799629084989E-10   8.879628046624108E-10   9.059008433881953E-10
   9.242012545409449E-10   9.428713585295679E-10   9.619186236450565E-10
   9.813506690478992E-10   1.001175267815851E-09   1.021400350053266E-09
   1.042034006063249E-09   1.063084489583880E-09   1.084560221089826E-09
   1.106469791160639E-09   1.128821963917113E-09   1.151625680527036E-09
   1.174890062781794E-09   1.198624416745191E-09   1.222838236476012E-09
   1.247541207825776E-09   1.272743212313198E-09   1.298454331076938E-09
   1.324684848908190E-09   1.351445258364739E-09   1.378746263968116E-09
   1.406598786485556E-09   1.435013967298454E-09   1.464003172859075E-09
   1.493577999237268E-09   1.523750276759071E-09   1.554532074738989E-09
   1.585935706307891E-09   1.617973733338418E-09   1.650658971469906E-09
   1.684004495234826E-09   1.718023643288753E-09   1.752730023746016E-09
   1.788137519623142E-09   1.824260294392235E-09   1.861112797646555E-09
   1.898709770880563E-09   1.937066253386704E-09   1.976197588271337E-09
   2.016119428592188E-09   2.056847743619777E-09   2.098398825225339E-09
   2.140789294397802E-09   2.184036107892408E-09   2.228156565013642E-09
   2.273168314535187E-09   2.319089361759678E-09   2.365938075721061E-09
   2.413733196532461E-09   2.462493842882469E-09   2.512239519682897E-09
   2.562990125870998E-09   2.614765962369313E-09   2.667587740206315E-09
   2.721476588801104E-09   2.776454064415453E-09   2.832542158776624E-09
   2.889763307874331E-09   2.948140400935471E-09   3.007696789580116E-09
   3.068456297162473E-09   3.130443228300552E-09   3.193682378598363E-09
   3.258199044564465E-09   3.324019033730938E-09   3.391168674976762E-09
   3.459674829059684E-09   3.529564899360929E-09   3.600866842846906E-09
   3.673609181252388E-09   3.747821012489597E-09   3.823532022287754E-09
   3.900772496067795E-09   3.979573331056951E-09   4.059966048648064E-09
   4.141982807008564E-09   4.225656413944194E-09   4.311020340022577E-09
   4.398108731961916E-09   4.486956426290128E-09   4.577598963279957E-09
   4.670072601165571E-09   4.764414330646325E-09   4.860661889683620E-09
   4.958853778596535E-09   5.059029275462537E-09   5.161228451829244E-09
   5.265492188743582E-09   5.371862193104766E-09   5.480381014347694E-09
   5.591092061463261E-09   5.704039620362558E-09   5.819268871591880E-09
   5.936825908405553E-09   6.056757755203886E-09   6.179112386343586E-09
   6.303938745328172E-09   6.431286764386076E-09   6.561207384444195E-09
   6.693752575504996E-09   6.828975357435255E-09   6.966929821174747E-09
   7.107671150373363E-09   7.251255643465343E-09   7.397740736189476E-09
   7.547185024564166E-09   7.699648288326695E-09   7.855191514845918E-09
   8.013876923518150E-09   8.175767990655728E-09   8.340929474878491E-09
   8.509427443018114E-09   8.681329296545794E-09   8.856703798533772E-09
   9.035621101161586E-09   9.218152773777864E-09   9.404371831529172E-09
   9.594352764567086E-09   9.788171567845309E-09   9.985905771518731E-09
   1.018763447195661E-08   1.039343836338229E-08   1.060339977015203E-08
   1.081760267968590E-08   1.103613277606403E-08   1.125907747430141E-08
   1.148652595531522E-08   1.171856920159844E-08   1.195530003361421E-08
   1.219681314692535E-08   1.244320515007390E-08   1.269457460322613E-08
   1.295102205759779E-08   1.321265009567632E-08   1.347956337225523E-08
   1.375186865629752E-08   1.402967487364491E-08   1.431309315058975E-08
   1.460223685832720E-08   1.489722165830538E-08   1.519816554849168E-08
   1.550518891057367E-08   1.581841455811358E-08   1.613796778567557E-08
   1.646397641894546E-08   1.679657086586294E-08   1.713588416878656E-08
   1.748205205771288E-08   1.783521300457027E-08   1.819550827861009E-08
   1.856308200291633E-08   1.893808121205711E-08   1.932065591090070E-08
   1.971095913461976E-08   2.010914700990780E-08   2.051537881743228E-08
   2.092981705554934E-08   2.135262750530554E-08   2.178397929675294E-08
   2.222404497660370E-08   2.267300057725156E-08   2.313102568718751E-08
   2.359830352283792E-08   2.407502100185408E-08   2.456136881788215E-08
   2.505754151684366E-08   2.556373757475704E-08   2.608015947713111E-08
   2.660701379996252E-08   2.714451129236958E-08   2.769286696089518E-08
   2.825230015551274E-08   2.882303465737011E-08   2.940529876830534E-08
   2.999932540217143E-08   3.060535217800561E-08   3.122362151508051E-08
   3.185438072987644E-08   3.249788213501174E-08   3.315438314017209E-08
   3.382414635507852E-08   3.450743969453616E-08   3.520453648560411E-08
   3.591571557693138E-08   3.664126145030084E-08   3.738146433442681E-08
   3.813662032105132E-08   3.890703148338646E-08   3.969300599694828E-08
   4.049485826283295E-08   4.131290903348206E-08   4.214748554098969E-08
   4.299892162800072E-08   4.386755788125408E-08   4.475374176782320E-08
   4.565782777410935E-08   4.658017754764241E-08   4.752116004174660E-08
   4.848115166312818E-08   4.946053642244526E-08   5.045970608791914E-08
   5.147906034204852E-08   5.251900694149036E-08   5.357996188017005E-08
   5.466234955568650E-08   5.576660293907937E-08   5.689316374802613E-08
   5.804248262353691E-08   5.921501931022003E-08   6.041124284018846E-08
   6.163163172068212E-08   6.287667412547988E-08   6.414686809017894E-08
   6.544272171141869E-08   6.676475335012993E-08   6.811349183888914E-08
   6.948947669346246E-08   7.089325832862323E-08   7.232539827832928E-08
   7.378646942034759E-08   7.527705620541802E-08   7.679775489104508E-08
   7.834917378001454E-08   7.993193346372632E-08   8.154666707044545E-08
   8.319402051856672E-08   8.487465277499598E-08   8.658923611875152E-08
   8.833845640989038E-08   9.012301336386808E-08   9.194362083143993E-08
   9.380100708421840E-08   9.569591510599761E-08   9.762910288996433E-08
   9.960134374191325E-08   1.016134265895868E-07   1.036661562982655E-07
   1.057603539927333E-07   1.078968573857465E-07   1.100765211131403E-07
   1.123002170757031E-07   1.145688347879593E-07   1.168832817339972E-07
   1.192444837304848E-07   1.216533852970209E-07   1.241109500339670E-07
   1.266181610079118E-07   1.291760211449253E-07   1.317855536317539E-07
   1.344478023251240E-07   1.371638321693115E-07   1.399347296221497E-07
   1.427616030896415E-07   1.456455833693544E-07   1.485878241027690E-07
   1.515895022367709E-07   1.546518184944614E-07   1.577759978554821E-07
   1.609632900460433E-07   1.642149700388522E-07   1.675323385631386E-07
   1.709167226249870E-07   1.743694760381807E-07   1.778919799657677E-07
   1.814856434725707E-07   1.851519040888573E-07   1.888922283853987E-07
   1.927081125601457E-07   1.966010830367571E-07   2.005726970752204E-07
   2.046245433948085E-07   2.087582428096206E-07   2.129754488769648E-07
   2.172778485588395E-07   2.216671628967761E-07   2.261451477003202E-07
   2.307135942494169E-07   2.353743300109904E-07   2.401292193699969E-07
   2.449801643752526E-07   2.499291055003218E-07   2.549780224197860E-07
   2.601289348011863E-07   2.653839031129756E-07   2.707450294487883E-07
   2.762144583683609E-07   2.817943777554482E-07   2.874870196930674E-07
   2.932946613564253E-07   2.992196259238902E-07   3.052642835063608E-07
   3.114310520954190E-07   3.177223985306348E-07   3.241408394864127E-07
   3.306889424787826E-07   3.373693268925225E-07   3.441846650290405E-07
   3.511376831754220E-07   3.582311626950810E-07   3.654679411404426E-07
   3.728509133881082E-07   3.803830327969537E-07   3.880673123896274E-07
   3.959068260579197E-07   4.039047097924815E-07   4.120641629373955E-07
   4.203884494700886E-07   4.288808993071071E-07   4.375449096362717E-07
   4.463839462757490E-07   4.554015450605859E-07   4.646013132572531E-07
   4.739869310067686E-07   4.835621527969844E-07   4.933308089646124E-07
   5.032968072276056E-07   5.134641342485000E-07   5.238368572293371E-07
   5.344191255388179E-07   5.452151723723312E-07   5.562293164455235E-07
   5.674659637220883E-07   5.789296091764648E-07   5.906248385921516E-07
   6.025563303963567E-07   6.147288575317231E-07   6.271472893658631E-07
   6.398165936394842E-07   6.527418384538711E-07   6.659281942985389E-07
   6.793809361198409E-07   6.931054454313870E-07   7.071072124670977E-07
   7.213918383777708E-07   7.359650374720250E-07   7.508326395025294E-07
   7.660005919984269E-07   7.814749626448900E-07   7.972619417107613E-07
   8.133678445252424E-07   8.297991140046359E-07   8.465623232301396E-07
   8.636641780777360E-07   8.811115199012273E-07   8.989113282694724E-07
   9.170707237589532E-07   9.355969708027624E-07   9.544974805971668E-07
   9.737798140669083E-07   9.934516848904230E-07   1.013520962586194E-06
   1.033995675661479E-06   1.054884014824665E-06   1.076194336262540E-06
   1.097935164983801E-06   1.120115198230116E-06   1.142743308956137E-06
   1.165828549379834E-06   1.189380154604566E-06   1.213407546314380E-06
   1.237920336543965E-06   1.262928331524811E-06   1.288441535609094E-06
   1.314470155272861E-06   1.341024603200125E-06   1.368115502449504E-06
   1.395753690705055E-06   1.423950224613045E-06   1.452716384206367E-06
   1.482063677418351E-06   1.512003844687843E-06   1.542548863657349E-06
   1.573710953966127E-06   1.605502582140168E-06   1.637936466581007E-06
   1.671025582655387E-06   1.704783167887775E-06   1.739222727257850E-06
   1.774358038605080E-06   1.810203158142512E-06   1.846772426082057E-06
   1.884080472373449E-06   1.922142222559247E-06   1.960972903748146E-06
   2.000588050709091E-06   2.041003512088544E-06   2.082235456753462E-06
   2.124300380262465E-06   2.167215111467877E-06   2.210996819251203E-06
   2.255663019394767E-06   2.301231581592280E-06   2.347720736601158E-06
   2.395149083539419E-06   2.443535597330131E-06   2.492899636296333E-06
   2.543260949909563E-06   2.594639686695025E-06   2.647056402296576E-06
   2.700532067704815E-06   2.755088077651519E-06   2.810746259173849E-06
   2.867528880351673E-06   2.925458659221621E-06   2.984558772871363E-06
   3.044852866717804E-06   3.106365063972913E-06   3.169119975300939E-06
   3.233142708670972E-06   3.298458879408725E-06   3.365094620451601E-06
   3.433076592811198E-06   3.502431996247386E-06   3.573188580158270E-06
   3.645374654690413E-06   3.719019102073827E-06   3.794151388186128E-06
   3.870801574350726E-06   3.949000329373570E-06   4.028778941823440E-06
   4.110169332560598E-06   4.193204067518966E-06   4.277916370746815E-06
   4.364340137711315E-06   4.452509948872245E-06   4.542461083530308E-06
   4.634229533955656E-06   4.727852019802287E-06   4.823366002814019E-06
   4.920809701828144E-06   5.020222108082623E-06   5.121643000833023E-06
   5.225112963285489E-06   5.330673398852193E-06   5.438366547735730E-06
   5.548235503849132E-06   5.660324232078380E-06   5.774677585894267E-06
   5.891341325320797E-06   6.010362135267249E-06   6.131787644231344E-06
   6.255666443381011E-06   6.382048106022440E-06   6.510983207462331E-06
   6.642523345272177E-06   6.776721159962924E-06   6.913630356078194E-06
   7.053305723714632E-06   7.195803160478006E-06   7.341179693883979E-06
   7.489493504212501E-06   7.640803947825062E-06   7.795171580954205E-06
   7.952658183974893E-06   8.113326786167559E-06   8.277241690982670E-06
   8.444468501817181E-06   8.615074148313166E-06   8.789126913189281E-06
   8.966696459615867E-06   9.147853859144752E-06   9.332671620205009E-06
   9.521223717176175E-06   9.713585620050744E-06   9.909834324697757E-06
   1.011004838373987E-05   1.031430793805625E-05   1.052269474892426E-05
   1.073529223081259E-05   1.095218548483924E-05   1.117346133290803E-05
   1.139920835253735E-05   1.162951691239503E-05   1.186447920855402E-05
   1.210418930148334E-05   1.234874315378948E-05   1.259823866872335E-05
   1.285277572946833E-05   1.311245623922553E-05   1.337738416211257E-05
   1.364766556489200E-05   1.392340865954682E-05   1.420472384672001E-05
   1.449172376003582E-05   1.478452331132089E-05   1.508323973674335E-05
   1.538799264388885E-05   1.569890405979233E-05   1.601609847994550E-05
   1.633970291829956E-05   1.666984695828358E-05   1.700666280485936E-05
   1.735028533763395E-05   1.770085216505143E-05   1.805850367968590E-05
   1.842338311465810E-05   1.879563660119926E-05   1.917541322738477E-05
   1.956286509806226E-05   1.995814739599812E-05   2.036141844426781E-05
   2.077283976991500E-05   2.119257616890583E-05   2.162079577240450E-05
   2.205767011439778E-05   2.250337420069571E-05   2.295808657933663E-05
   2.342198941242548E-05   2.389526854943507E-05   2.437811360199978E-05
   2.487071802023256E-05   2.537327917059675E-05   2.588599841536440E-05
   2.640908119369370E-05   2.694273710435884E-05   2.748717999016636E-05
   2.804262802409236E-05   2.860930379717660E-05   2.918743440820896E-05
   2.977725155524560E-05   3.037899162899221E-05   3.099289580809319E-05
   3.161921015636584E-05   3.225818572201952E-05   3.291007863890098E-05
   3.357515022980768E-05   3.425366711191154E-05   3.494590130433720E-05
   3.565213033793819E-05   3.637263736731854E-05   3.710771128514387E-05
   3.785764683879089E-05   3.862274474938318E-05   3.940331183326315E-05
   4.019966112594959E-05   4.101211200863376E-05   4.184099033726583E-05
   4.268662857428496E-05   4.354936592304947E-05   4.442954846502150E-05
   4.532752929976447E-05   4.624366868781168E-05   4.717833419646563E-05
   4.813190084858857E-05   4.910475127444823E-05   5.009727586668020E-05
   5.110987293843419E-05   5.214294888476846E-05   5.319691834736247E-05
   5.427220438261476E-05   5.536923863319961E-05   5.648846150315208E-05
   5.763032233655692E-05   5.879527959991675E-05   5.998380106827641E-05
   6.119636401518182E-05   6.243345540655524E-05   6.369557209856732E-05
   6.498322103959240E-05   6.629691947633030E-05   6.763719516418457E-05
   6.900458658198599E-05   7.039964315115275E-05   7.182292545938152E-05
   7.327500548896508E-05   7.475646684983383E-05   7.626790501742231E-05
   7.780992757546185E-05   7.938315446380372E-05   8.098821823138120E-05
   8.262576429441715E-05   8.429645119999109E-05   8.600095089507914E-05
   8.773994900118178E-05   8.951414509466097E-05   9.132425299290800E-05
   9.317100104646420E-05   9.505513243722642E-05   9.697740548286238E-05
   9.893859394757433E-05   1.009394873593426E-04   1.029808913337903E-04
   1.050636279048133E-04   1.071885358621177E-04   1.093564710958159E-04
   1.115683069482335E-04   1.138249345730823E-04   1.161272633021591E-04
   1.184762210197337E-04   1.208727545447912E-04   1.233178300213029E-04
   1.258124333166949E-04   1.283575704286983E-04   1.309542679007614E-04
   1.336035732462101E-04   1.363065553813474E-04   1.390643050676939E-04
   1.418779353635595E-04   1.447485820851595E-04   1.476774042774816E-04
   1.506655846951188E-04   1.537143302932895E-04   1.568248727292667E-04
   1.599984688744500E-04   1.632364013373175E-04   1.665399789974916E-04
   1.699105375511744E-04   1.733494400682017E-04   1.768580775609760E-04
   1.804378695655433E-04   1.840902647350850E-04   1.878167414461055E-04
   1.916188084175979E-04   1.954980053434849E-04   1.994559035386274E-04
   2.034941065987117E-04   2.076142510743293E-04   2.118180071595697E-04
   2.161070793954574E-04   2.204832073885692E-04   2.249481665451801E-04
   2.295037688212923E-04   2.341518634889096E-04   2.388943379189316E-04
   2.437331183810475E-04   2.486701708610282E-04   2.537075018958095E-04
   2.588471594267830E-04   2.640912336717169E-04   2.694418580157413E-04
   2.749012099218373E-04   2.804715118612896E-04   2.861550322645693E-04
   2.919540864931263E-04   2.978710378325837E-04   3.039082985078329E-04
   3.100683307205580E-04   3.163536477097096E-04   3.227668148354826E-04
   3.293104506873485E-04   3.359872282167251E-04   3.427998758948649E-04
   3.497511788965762E-04   3.568439803103883E-04   3.640811823758056E-04
   3.714657477483042E-04   3.790007007927412E-04   3.866891289058728E-04
   3.945341838686806E-04   4.025390832292452E-04   4.107071117169131E-04
   4.190416226885211E-04   4.275460396074726E-04   4.362238575564785E-04
   4.450786447847956E-04   4.541140442908213E-04   4.633337754409218E-04
   4.727416356254063E-04   4.823415019525735E-04   4.921373329817945E-04
   5.021331704966091E-04   5.123331413188567E-04   5.227414591648707E-04
   5.333624265448283E-04   5.442004367063297E-04   5.552599756233699E-04
   5.665456240318451E-04   5.780620595128138E-04   5.898140586247287E-04
   6.018064990859259E-04   6.140443620086669E-04   6.265327341860926E-04
   6.392768104334621E-04   6.522818959851153E-04   6.655534089486207E-04
   6.790968828176233E-04   6.929179690449569E-04   7.070224396776110E-04
   7.214161900552207E-04   7.361052415737827E-04   7.510957445163326E-04
   7.663939809524181E-04   7.820063677082059E-04   7.979394594091677E-04
   8.141999515972971E-04   8.307946839249213E-04   8.477306434271918E-04
   8.650149678754334E-04   8.826549492135892E-04   9.006580370800475E-04
   9.190318424172522E-04   9.377841411715299E-04   9.569228780856777E-04
   9.764561705869032E-04   9.963923127728274E-04   1.016739779498319E-03
   1.037507230566011E-03   1.058703515023486E-03   1.080337675570170E-03
   1.102418953077073E-03   1.124956791222644E-03   1.147960841248107E-03
   1.171440966835705E-03   1.195407249113497E-03   1.219869991790343E-03
   1.244839726424918E-03   1.270327217832733E-03   1.296343469635173E-03
   1.322899729954827E-03   1.350007497261393E-03   1.377678526372730E-03
   1.405924834615616E-03   1.434758708151089E-03   1.464192708469270E-03
   1.494239679058827E-03   1.524912752256399E-03   1.556225356281402E-03
   1.588191222461934E-03   1.620824392657630E-03   1.654139226885498E-03
   1.688150411155036E-03   1.722872965519097E-03   1.758322252347187E-03
   1.794513984828182E-03   1.831464235709574E-03   1.869189446280720E-03
   1.907706435607760E-03   1.947032410028132E-03   1.987184972912959E-03
   2.028182134705766E-03   2.070042323246367E-03   2.112784394389063E-03
   2.156427642924567E-03   2.200991813815425E-03   2.246497113755101E-03
   2.292964223061169E-03   2.340414307913476E-03   2.388869032948536E-03
   2.438350574221765E-03   2.488881632549652E-03   2.540485447244357E-03
   2.593185810253635E-03   2.647007080719553E-03   2.701974199969849E-03
   2.758112706956324E-03   2.815448754155226E-03   2.874009123945035E-03
   2.933821245477659E-03   2.994913212059722E-03   3.057313799061073E-03
   3.121052482368337E-03   3.186159457402075E-03   3.252665658716663E-03
   3.320602780202778E-03   3.390003295913067E-03   3.460900481532420E-03
   3.533328436514925E-03   3.607322106910558E-03   3.682917308905309E-03
   3.760150753099597E-03   3.839060069550464E-03   3.919683833604182E-03
   4.002061592546888E-03   4.086233893101687E-03   4.172242309802110E-03
   4.260129474272494E-03   4.349939105447308E-03   4.441716040762548E-03
   4.535506268353533E-03   4.631356960294844E-03   4.729316506919296E-03
   4.829434552254435E-03   4.931762030616307E-03   5.036351204402071E-03
   5.143255703124077E-03   5.252530563730210E-03   5.364232272256581E-03
   5.478418806860650E-03   5.595149682284524E-03   5.714485995800225E-03
   5.836490474690456E-03   5.961227525320818E-03   6.088763283861121E-03
   6.219165668715913E-03   6.352504434726596E-03   6.488851229209851E-03
   6.628279649899657E-03   6.770865304862511E-03   6.916685874458424E-03
   7.065821175423048E-03   7.218353227148751E-03   7.374366320246008E-03
   7.533947087469310E-03   7.697184577094954E-03   7.864170328841643E-03
   8.034998452428180E-03   8.209765708866262E-03   8.388571594589922E-03
   8.571518428527608E-03   8.758711442226194E-03   8.950258873141175E-03
   9.146272061211122E-03   9.346865548839492E-03   9.552157184411218E-03
   9.762268229476711E-03   9.977323469740808E-03   1.019745132999981E-02
   1.042278399317467E-02   1.065345752359482E-02   1.088961199469258E-02
   1.113139162127437E-02   1.137894489654129E-02   1.163242473403857E-02
   1.189198861471969E-02   1.215779873931890E-02   1.243002218623238E-02
   1.270883107511687E-02   1.299440273642181E-02   1.328691988707998E-02
   1.358657081258957E-02   1.389354955573018E-02   1.420805611216394E-02
   1.453029663318259E-02   1.486048363587194E-02   1.519883622097412E-02
   1.554558029874018E-02   1.590094882307538E-02   1.626518203429185E-02
   1.663852771079448E-02   1.702124143003856E-02   1.741358683911034E-02
   1.781583593529459E-02   1.822826935700696E-02   1.865117668548292E-02
   1.908485675762992E-02   1.952961799046364E-02   1.998577871756568E-02
   2.045366753801521E-02   2.093362367826390E-02   2.142599736744099E-02
   2.193115022659187E-02   2.244945567237278E-02   2.298129933574231E-02
   2.352707949620931E-02   2.408720753221755E-02   2.466210838826684E-02
   2.525222105939195E-02   2.585799909364111E-02   2.647991111321972E-02
   2.711844135498494E-02   2.777409023100234E-02   2.844737490989771E-02
   2.913882991976239E-02   2.984900777339409E-02   3.057847961668127E-02
   3.132783590096400E-02   3.209768708023074E-02   3.288866433403564E-02
   3.370142031704924E-02   3.453662993618069E-02   3.539499115623781E-02
   3.627722583511842E-02   3.718408058955230E-02   3.811632769244182E-02
   3.907476600287611E-02   4.006022192991861E-02   4.107355043129635E-02
   4.211563604814316E-02   4.318739397697542E-02   4.428977118010083E-02
   4.542374753568537E-02   4.659033702872377E-02   4.779058898417780E-02
   4.902558934356675E-02   5.029646198630522E-02   5.160437009710079E-02
   5.295051758072877E-02   5.433615052551024E-02   5.576255871681943E-02
   5.723107720194303E-02   5.874308790760661E-02   6.030002131146884E-02
   6.190335816886062E-02   6.355463129602065E-02   6.525542741103889E-02
   6.700738903367440E-02   6.881221644515517E-02   7.067166970899907E-02
   7.258757075381217E-02   7.456180551892477E-02   7.659632616360951E-02
   7.869315334049901E-02   8.085437853366670E-02   8.308216646166178E-02
   8.537875754559479E-02   8.774647044214566E-02   9.018770464111282E-02
   9.270494312683905E-02   9.530075510253198E-02   9.797779877613269E-02
   1.007388242059939E-01   1.035866762041765E-01   1.065242972946798E-01
   1.095547307233663E-01   1.126811235157327E-01   1.159067295779989E-01
   1.192349128362419E-01   1.226691504074706E-01   1.262130357956333E-01
   1.298702821045469E-01   1.336447252586405E-01   1.375403272212001E-01
   1.415611791984834E-01   1.457115048166311E-01   1.499956632567342E-01
   1.544181523316862E-01   1.589836114865973E-01   1.636968247025088E-01
   1.685627232809452E-01   1.735863884844540E-01   1.787730540057015E-01
   1.841281082349060E-01   1.896570962923804E-01   1.953657217897325E-01
   2.012598482797846E-01   2.073455003515700E-01   2.136288643227777E-01
   2.201162884777789E-01   2.268142827948622E-01   2.337295181015088E-01
   2.408688245914930E-01   2.482391896322517E-01   2.558477547853590E-01
   2.637018119571014E-01   2.718087985900215E-01   2.801762918000014E-01
   2.888120013569092E-01   2.977237614001920E-01   3.069195207739861E-01
   3.164073318594990E-01   3.261953377755888E-01   3.362917578117478E-01
   3.467048709511756E-01   3.574429973354186E-01   3.685144775162831E-01
   3.799276493355840E-01   3.916908222688873E-01   4.038122490660236E-01
   4.163000945189486E-01   4.291624011867748E-01   4.424070519088369E-01
   4.560417289396778E-01   4.700738695453262E-01   4.845106179084197E-01
   4.993587732011232E-01   5.146247336997384E-01   5.303144368338766E-01
   5.464332950865434E-01   5.629861276899338E-01   5.799770880956143E-01
   5.974095872376030E-01   6.152862126530605E-01   6.336086435783265E-01
   6.523775621982455E-01   6.715925612944974E-01   6.912520486140400E-01
   7.113531483621236E-01   7.318916003154015E-01   7.528616571493282E-01
   7.742559806798908E-01   7.960655378320017E-01   8.182794972647804E-01
   8.408851277060664E-01   8.638676991733698E-01   8.872103883839081E-01
   9.108941897802465E-01   9.348978337173203E-01   9.591977134681215E-01
   9.837678228054514E-01   1.008579706001665E+00   1.033602422152952E+00
   1.058802525774538E+00   1.084144065623280E+00   1.109588603679381E+00
   1.135095256154194E+00   1.160620758281430E+00   1.186119554489859E+00
   1.211543915342998E+00   1.236844082361737E+00   1.261968441517826E+00
   1.286863725798130E+00   1.311475246793055E+00   1.335747154759600E+00
   1.359622726055210E+00   1.383044676239673E+00   1.405955496508167E+00
   1.428297810460811E+00   1.450014747547001E+00   1.471050328862592E+00
   1.491349860343142E+00   1.510860327807072E+00   1.529530787780056E+00
   1.547312747598179E+00   1.564160527964821E+00   1.580031600946243E+00
   1.594886896353938E+00   1.608691069596797E+00   1.621412724408787E+00
   1.633024584382203E+00   1.643503607972618E+00   1.652831042597231E+00
   1.660992414628165E+00   1.667977453489151E+00   1.673779949699570E+00
   1.678397548575243E+00   1.681831483393437E+00   1.684086254165061E+00
   1.685169260738852E+00   1.685090401803653E+00   1.683861654474152E+00
   1.681496652565066E+00   1.678010285404859E+00   1.673418343137851E+00
   1.667737238934843E+00   1.660983843388009E+00   1.653175471601888E+00
   1.644330069081997E+00   1.634466633638092E+00   1.623605727704787E+00
   1.611769592413737E+00   1.598982096034524E+00   1.585268665712033E+00
   1.570656214939176E+00   1.555173067059944E+00   1.538848875110120E+00
   1.521714538313211E+00   1.503802115557100E+00   1.485144736183098E+00
   1.465776508423220E+00   1.445732425824322E+00   1.425048271998701E+00
   1.403760524040710E+00   1.381906254947429E+00   1.359523035379044E+00
   1.336648835091115E+00   1.313321924366732E+00   1.289580775771593E+00
   1.265463966549554E+00   1.241010081970184E+00   1.216257619933341E+00
   1.191244897129103E+00   1.166009957044148E+00   1.140590480098342E+00
   1.115023696187475E+00   1.089346299900115E+00   1.063594368667889E+00
   1.037803284100132E+00   1.012007656742850E+00   9.862412544933316E-01
   9.605369348897801E-01   9.349265814828498E-01   9.094410444828728E-01
   8.841100858616378E-01   8.589623290712581E-01   8.340252135247456E-01
   8.093249539632090E-01   7.848865048132767E-01   7.607335296152431E-01
   7.368883755777669E-01   7.133720532887466E-01   6.902042215845906E-01
   6.674031775516271E-01   6.449858516042822E-01   6.229678075551363E-01
   6.013632475627512E-01   5.801850218140988E-01   5.594446427707517E-01
   5.391523037812633E-01   5.193169018375043E-01   4.999460642302140E-01
   4.810461788389661E-01   4.626224277745350E-01   4.446788240774708E-01
   4.272182511657247E-01   4.102425047164959E-01   3.937523366631303E-01
   3.777475009868402E-01   3.622268009851757E-01   3.471881377043280E-01
   3.326285592303908E-01   3.185443105452632E-01   3.049308836658171E-01
   2.917830677998347E-01   2.790949992688341E-01   2.668602109658387E-01
   2.550716811351423E-01   2.437218812807978E-01   2.328028230306609E-01
   2.223061038029950E-01   2.122229511426914E-01   2.025442656137507E-01
   1.932606621536637E-01   1.843625098134752E-01   1.758399698244834E-01
   1.676830319485734E-01   1.598815490840136E-01   1.524252701120908E-01
   1.453038709821574E-01   1.385069840435411E-01   1.320242256422821E-01
   1.258452220088878E-01   1.199596334702584E-01   1.143571770247163E-01
   1.090276473237457E-01   1.039609361077224E-01   9.914705014565801E-02
   9.457612773094126E-02   9.023845378630357E-02   8.612447363188525E-02
   8.222480547042776E-02   7.853025164335314E-02   7.503180871089488E-02
   7.172067640858976E-02   6.858826553136671E-02   6.562620479524081E-02
   6.282634672524873E-02   6.018077261679515E-02   5.768179661601264E-02
   5.532196896306915E-02   5.309407844061828E-02   5.099115406778730E-02
   4.900646607823374E-02   4.713352621890686E-02   4.536608740429385E-02
   4.369814275915541E-02   4.212392408116169E-02   4.063789975351571E-02
   3.923477213670785E-02   3.790947446808268E-02   3.665716729800889E-02
   3.547323449217324E-02   3.435327883088498E-02   3.329311723822170E-02
   3.228877567625141E-02   3.133648374224407E-02   3.043266900948563E-02
   2.957395115474373E-02   2.875713591729552E-02   2.797920893542441E-02
   2.723732950617832E-02   2.652882431278814E-02   2.585118116141459E-02
   2.520204276486216E-02   2.457920060573621E-02   2.398058890551168E-02
   2.340427871945464E-02   2.284847217068768E-02   2.231149683033274E-02
   2.179180024496238E-02   2.128794460785066E-02   2.079860156695915E-02
   2.032254716033069E-02   1.985865686859701E-02   1.940590077453566E-02
   1.896333882085618E-02   1.853011615940688E-02   1.810545858750415E-02
   1.768866806981448E-02   1.727911834690875E-02   1.687625063404461E-02
   1.647956941575115E-02   1.608863834328437E-02   1.570307624294726E-02
   1.532255324362210E-02   1.494678703169373E-02   1.457553924092044E-02
   1.420861198382778E-02   1.384584452995703E-02   1.348711013489033E-02
   1.313231302248649E-02   1.278138552130746E-02   1.243428535476786E-02
   1.209099308319281E-02   1.175150969487376E-02   1.141585434218509E-02
   1.108406221794925E-02   1.075618256659179E-02   1.043227682411625E-02
   1.011241688057142E-02   9.796683458466416E-03   9.485164600495758E-03
   9.177954259952591E-03   8.875150987319561E-03   8.576856706718839E-03
   8.283175576163360E-03   7.994212925868925E-03   7.710074269250440E-03
   7.430864381626072E-03   7.156686442081346E-03   6.887641234393263E-03
   6.623826403374295E-03   6.365335763460403E-03   6.112258656828987E-03
   5.864679358784453E-03   5.622676528584316E-03   5.386322704291224E-03
   5.155683840618656E-03   4.930818889085219E-03   4.711779420098893E-03
   4.498609286853182E-03   4.291344331128033E-03   4.090012131247090E-03
   3.894631792546561E-03   3.705213780759550E-03   3.521759798713483E-03
   3.344262706678242E-03   3.172706486592587E-03   3.007066250239384E-03
   2.847308291241567E-03   2.693390180516302E-03   2.545260904560798E-03
   2.402861045657144E-03   2.266123002782267E-03   2.134971251700393E-03
   2.009322642406892E-03   1.889086731790685E-03   1.774166149094957E-03
   1.664456991488420E-03   1.559849246817656E-03   1.460227240399739E-03
   1.365470102537304E-03   1.275452253298618E-03   1.190043901004938E-03
   1.109111550807982E-03   1.032518519721799E-03   9.601254544955140E-04
   8.917908487748699E-04   8.273715560996347E-04   7.667232954179686E-04
   7.097011459652057E-04   6.561600285493839E-04   6.059551705059736E-04
   5.589425518254697E-04   5.149793302158449E-04   4.739242431332365E-04
   4.356379850946752E-04   3.999835588719313E-04   3.668265994521736E-04
   3.360356699348011E-04   3.074825288174514E-04   2.810423683821026E-04
   2.565940241633299E-04   2.340201557193361E-04   2.132073991561564E-04
   1.940464920672046E-04   1.764323717433775E-04   1.602642476824963E-04
   1.454456495804890E-04   1.318844521202364E-04   1.194928779875818E-04
   1.081874806381691E-04   9.788910841429628E-05   8.852285166896382E-05
   8.001797459608296E-05   7.230783349302138E-05   6.532978319616746E-05
   5.902507343426283E-05   5.324461285869918E-05   4.795395488046232E-05
   4.311997904544121E-05   3.871093598744804E-05   3.469648003669825E-05
   3.104769026999117E-05   2.773708084226090E-05   2.473860146110493E-05
   2.202762888044010E-05   1.958095029332740E-05   1.737673949810103E-05
   1.539452669722509E-05   1.361516276581160E-05   1.202077879749219E-05
   1.059474170034603E-05   9.321606575823208E-06   8.187066570038180E-06
   7.177900840582507E-06   6.281921231859860E-06   5.487918206352248E-06
   4.785606522969723E-06   4.165571108063713E-06   3.619213513167664E-06
   3.138699305461809E-06   2.716906691519862E-06   2.347376618593439E-06
   2.024264629446485E-06   1.742293991428300E-06   1.494118403938384E-06
   1.278921647647826E-06   1.092671107124016E-06   9.317787131027738E-07
   7.930584643805634E-07   6.736865018547265E-07   5.711652167557908E-07
   4.832900821927874E-07   4.081192844830717E-07   3.439459853846828E-07
   2.892730490040808E-07   2.427900706780132E-07   2.033525493026021E-07
   1.699630496685530E-07   1.417542067623031E-07   1.179734300182938E-07
   9.796917184311171E-08   8.117863135156677E-08   6.711677106375692E-08
   5.536653123205955E-08   4.557013342588076E-08   3.742137193510886E-08
   3.065879840298308E-08   2.505971181490806E-08   2.043487250813581E-08
   1.662386519131487E-08   1.349104204229919E-08   1.092198276304657E-08
   8.820413993309345E-09   7.105535706842396E-09   5.709707126516249E-09
   4.576449293904533E-09   3.658725714337175E-09   2.917466473218607E-09
   2.320304889670544E-09   1.840499147829192E-09   1.456014435020345E-09
   1.148743931815329E-09   9.038495551775725E-10   7.092056670130826E-10
   5.549310415272508E-10   4.329962512903799E-10   3.368952993452069E-10
   2.613718084475480E-10   2.021913937133118E-10   1.559530061937736E-10
   1.199330562862424E-10   9.195702080820368E-11   7.029401867963231E-11
   5.357051934070281E-11   4.069993633231239E-11   3.082536610562340E-11
   2.327316849587937E-11   1.751545897247108E-11   1.313990154862910E-11
   9.825462129529523E-12   7.323011407014623E-12   5.439859806197475E-12
   4.027469457102038E-12   2.971724123349147E-12   2.185251354926678E-12
   1.601385241071468E-12   1.169435979066729E-12   8.509966057800710E-13
   6.170698675147477E-13   4.458412225050500E-13   3.209589942393835E-13
   2.302110946850700E-13   1.645106743220288E-13   1.171215066921733E-13
   8.306869638038604E-14   5.869209238698166E-14   4.130915911748054E-14
   2.896147162319070E-14   2.022484407795644E-14   1.406768478112960E-14
   9.745752941191116E-15   6.724279374211993E-15   4.620572244408009E-15
   3.161894329160331E-15   2.154677293102913E-15   1.462116437144241E-15
   9.879338977299492E-16   6.646625270065434E-16   4.452284123882737E-16
   2.969297540036725E-16   1.971488947018721E-16   1.303122288821331E-16
   8.574452938132684E-17   5.616142473854010E-17   3.661508848155711E-17
   2.376030230115555E-17   1.534592823194168E-17   9.864223652668761E-18
   6.310157768880384E-18   4.017019023946757E-18   2.544676126980977E-18
   1.604000422424841E-18   1.005999908606362E-18   6.277559690822691E-19
   3.897273946360786E-19   2.407053238041954E-19   1.478912285156205E-19
   9.038745333055822E-20   5.494899101211543E-20   3.322566839142607E-20
   1.998142802641227E-20   1.195072456277373E-20   7.108087324070695E-21
   4.204145338123868E-21   2.472546908238469E-21   1.445867069461804E-21
   8.406285015588514E-22   4.858994756359132E-22   2.792092040755851E-22
   1.594880546266873E-22   9.055566240664383E-23   5.110527314475779E-23
   2.866499256984878E-23   1.597890707977448E-23   8.851650512119994E-24
   4.872546079246846E-24
  </PP_RHOATOM>
  <PP_GIPAW gipaw_data_format="2">
    <PP_GIPAW_CORE_ORBITALS number_of_core_orbitals="3">
      <PP_GIPAW_CORE_ORBITAL.1 size="1525" index="1" label="1S" n="1.00000000000000" l="0.000000000000000E+000">
   2.541863432475241E-03   2.567275253071625E-03   2.592941123754954E-03
   2.618863584345094E-03   2.645045096556080E-03   2.671488030543775E-03
   2.698195053725796E-03   2.725168791743953E-03   2.752411907765605E-03
   2.779927091493606E-03   2.807717059427949E-03   2.835784555132132E-03
   2.864132349502121E-03   2.892763241037942E-03   2.921680056117958E-03
   2.950885649275845E-03   2.980382903480307E-03   3.010174730417550E-03
   3.040264070776541E-03   3.070653894537081E-03   3.101347201260722E-03
   3.132347020384548E-03   3.163656411517861E-03   3.195278464741782E-03
   3.227216300911811E-03   3.259473071963375E-03   3.292051961220373E-03
   3.324956183706779E-03   3.358188986461303E-03   3.391753648855153E-03
   3.425653482912937E-03   3.459891833636716E-03   3.494472079333252E-03
   3.529397631945898E-03   3.564671937378255E-03   3.600298475806953E-03
   3.636280762122677E-03   3.672622346321163E-03   3.709326813492646E-03
   3.746397784512069E-03   3.783838916840775E-03   3.821653903790609E-03
   3.859846474933837E-03   3.898420397507997E-03   3.937379476460177E-03
   3.976727554523173E-03   4.016468512161460E-03   4.056606268098962E-03
   4.097144781205889E-03   4.138088050004225E-03   4.179440111549078E-03
   4.221205043460268E-03   4.263386963979122E-03   4.305990031820467E-03
   4.349018448481461E-03   4.392476456733116E-03   4.436368340584512E-03
   4.480698427337775E-03   4.525471087369671E-03   4.570690734648287E-03
   4.616361826752342E-03   4.662488865409649E-03   4.709076397329678E-03
   4.756129014589282E-03   4.803651355124141E-03   4.851648103296371E-03
   4.900123989163460E-03   4.949083789598799E-03   4.998532329706872E-03
   5.048474482109361E-03   5.098915168015581E-03   5.149859358190621E-03
   5.201312072548218E-03   5.253278379960581E-03   5.305763400036823E-03
   5.358772303828942E-03   5.412310313901677E-03   5.466382703876139E-03
   5.520994799577603E-03   5.576151981360781E-03   5.631859682496216E-03
   5.688123388734628E-03   5.744948641151280E-03   5.802341036914194E-03
   5.860306228298156E-03   5.918849923413506E-03   5.977977886253373E-03
   6.037695938040574E-03   6.098009959308835E-03   6.158925889209747E-03
   6.220449725190605E-03   6.282587523737893E-03   6.345345401539738E-03
   6.408729536581205E-03   6.472746167874899E-03   6.537401595233069E-03
   6.602702181992355E-03   6.668654355404560E-03   6.735264606459852E-03
   6.802539490051994E-03   6.870485625854532E-03   6.939109699655447E-03
   7.008418462986283E-03   7.078418734004813E-03   7.149117399614623E-03
   7.220521415392171E-03   7.292637804665755E-03   7.365473661046010E-03
   7.439036148665650E-03   7.513332502589723E-03   7.588370029500744E-03
   7.664156107609290E-03   7.740698189162491E-03   7.818003801104789E-03
   7.896080544396153E-03   7.974936094874551E-03   8.054578203989311E-03
   8.135014701377207E-03   8.216253494150477E-03   8.298302566351943E-03
   8.381169981901675E-03   8.464863885317702E-03   8.549392501355075E-03
   8.634764135990586E-03   8.720987178185910E-03   8.808070099700079E-03
   8.896021454641138E-03   8.984849882056575E-03   9.074564107901289E-03
   9.165172944607345E-03   9.256685292254744E-03   9.349110138616465E-03
   9.442456559294017E-03   9.536733719943784E-03   9.631950877424099E-03
   9.728117380107790E-03   9.825242669126480E-03   9.923336278554774E-03
   1.002240783561501E-02   1.012246706387378E-02   1.022352378394062E-02
   1.032558791302191E-02   1.042866946655913E-02   1.053277855870651E-02
   1.063792540281061E-02   1.074412031348614E-02   1.085137370779514E-02
   1.095969610530348E-02   1.106909812946952E-02   1.117959050881700E-02
   1.129118407829584E-02   1.140388977937690E-02   1.151771866136628E-02
   1.163268188270666E-02   1.174879071190160E-02   1.186605652953146E-02
   1.198449082811158E-02   1.210410521320812E-02   1.222491140565990E-02
   1.234692124168375E-02   1.247014667303777E-02   1.259459976960518E-02
   1.272029272077404E-02   1.284723783629942E-02   1.297544754780825E-02
   1.310493440882004E-02   1.323571109654856E-02   1.336779041353922E-02
   1.350118528808487E-02   1.363590877514419E-02   1.377197405929501E-02
   1.390939445507987E-02   1.404818340721222E-02   1.418835449325164E-02
   1.432992142442459E-02   1.447289804662441E-02   1.461729834189026E-02
   1.476313643029866E-02   1.491042657135054E-02   1.505918316429266E-02
   1.520942074923351E-02   1.536115400964673E-02   1.551439777364281E-02
   1.566916701486461E-02   1.582547685406328E-02   1.598334256039030E-02
   1.614277955333937E-02   1.630380340380939E-02   1.646642983537105E-02
   1.663067472612696E-02   1.679655411008709E-02   1.696408417846805E-02
   1.713328128107141E-02   1.730416192856384E-02   1.747674279357727E-02
   1.765104071192916E-02   1.782707268468592E-02   1.800485587951330E-02
   1.818440763232918E-02   1.836574544888903E-02   1.854888700645996E-02
   1.873385015545893E-02   1.892065292109342E-02   1.910931350510632E-02
   1.929985028743829E-02   1.949228182774217E-02   1.968662686716954E-02
   1.988290433032263E-02   2.008113332691434E-02   2.028133315354528E-02
   2.048352329540408E-02   2.068772342787460E-02   2.089395341876637E-02
   2.110223333004302E-02   2.131258341942421E-02   2.152502414238619E-02
   2.173957615407204E-02   2.195626031146030E-02   2.217509767491456E-02
   2.239610951005526E-02   2.261931728986332E-02   2.284474269663891E-02
   2.307240762429692E-02   2.330233417997012E-02   2.353454468598682E-02
   2.376906168217334E-02   2.400590792775119E-02   2.424510640351710E-02
   2.448668031415166E-02   2.473065308999862E-02   2.497704838854246E-02
   2.522589009760421E-02   2.547720233782451E-02   2.573100946393007E-02
   2.598733606665224E-02   2.624620697561750E-02   2.650764726187143E-02
   2.677168223932909E-02   2.703833746759969E-02   2.730763875491977E-02
   2.757961215941405E-02   2.785428399109330E-02   2.813168081526960E-02
   2.841182945530648E-02   2.869475699399349E-02   2.898049077584330E-02
   2.926905841031252E-02   2.956048777382730E-02   2.985480701241486E-02
   3.015204454419061E-02   3.045222906189515E-02   3.075538953545078E-02
   3.106155521453924E-02   3.137075563120081E-02   3.168302060245653E-02
   3.199838023295255E-02   3.231686491760712E-02   3.263850534440798E-02
   3.296333249754863E-02   3.329137765950314E-02   3.362267241263390E-02
   3.395724864426396E-02   3.429513854928405E-02   3.463637463052027E-02
   3.498098970334181E-02   3.532901689867887E-02   3.568048966563369E-02
   3.603544177561734E-02   3.639390732308011E-02   3.675592072895395E-02
   3.712151674618542E-02   3.749073046000671E-02   3.786359729101162E-02
   3.824015299954722E-02   3.862043368802167E-02   3.900447580426880E-02
   3.939231614464607E-02   3.978399185720911E-02   4.017954044490412E-02
   4.057899976878574E-02   4.098240805126262E-02   4.138980387936770E-02
   4.180122620805436E-02   4.221671436351892E-02   4.263630804654907E-02
   4.306004733589870E-02   4.348797269168902E-02   4.392012495883629E-02
   4.435654537050614E-02   4.479727555159460E-02   4.524235752223609E-02
   4.569183370133827E-02   4.614574691014402E-02   4.660414037582074E-02
   4.706705773507737E-02   4.753454303780891E-02   4.800664075076703E-02
   4.848339576125812E-02   4.896485338084248E-02   4.945105934925519E-02
   4.994205983882250E-02   5.043790145738380E-02   5.093863125074399E-02
   5.144429670911041E-02   5.195494576940665E-02   5.247062681785673E-02
   5.299138869727335E-02   5.351728071058803E-02   5.404835262307350E-02
   5.458465466827003E-02   5.512623755083024E-02   5.567315244922919E-02
   5.622545102228672E-02   5.678318541207064E-02   5.734640824845730E-02
   5.791517265327339E-02   5.848953224453821E-02   5.906954114073314E-02
   5.965525396509846E-02   6.024672584995829E-02   6.084401244107581E-02
   6.144716990203691E-02   6.205625491866305E-02   6.267132470345323E-02
   6.329243700005491E-02   6.391965008776408E-02   6.455302278605435E-02
   6.519261445913498E-02   6.583848502053800E-02   6.649069493773431E-02
   6.714930523677852E-02   6.781437750698288E-02   6.848597390561995E-02
   6.916415716265395E-02   6.984899058550095E-02   7.054053806381762E-02
   7.123886407431847E-02   7.194403368562168E-02   7.265611256312310E-02
   7.337516697389868E-02   7.410126379163491E-02   7.483447050158738E-02
   7.557485520556710E-02   7.632248662695466E-02   7.707743411574197E-02
   7.783976765360140E-02   7.860955785898219E-02   7.938687599223394E-02
   8.017179396075708E-02   8.096438432417991E-02   8.176472029956218E-02
   8.257287576662500E-02   8.338892527300668E-02   8.421294403954432E-02
   8.504500796558119E-02   8.588519363429899E-02   8.673357831807539E-02
   8.759023998386613E-02   8.845525729861153E-02   8.932870963466698E-02
   9.021067707525730E-02   9.110124041995434E-02   9.200048119017765E-02
   9.290848163471777E-02   9.382532473528178E-02   9.475109421206064E-02
   9.568587452931809E-02   9.662975090100184E-02   9.758280929637594E-02
   9.854513644563066E-02   9.951681984575907E-02   1.004979477672558E-01
   1.014886092591025E-01   1.024888941514475E-01   1.034988930621699E-01
   1.045186974041201E-01   1.055483993945689E-01   1.065880920601468E-01
   1.076378692368185E-01   1.086978255787477E-01   1.097680565651596E-01
   1.108486585050629E-01   1.119397285435266E-01   1.130413646674783E-01
   1.141536657115894E-01   1.152767313641666E-01   1.164106621730525E-01
   1.175555595515340E-01   1.187115257842579E-01   1.198786640331530E-01
   1.210570783433577E-01   1.222468736491520E-01   1.234481557798930E-01
   1.246610314659535E-01   1.258856083446608E-01   1.271219949662371E-01
   1.283703007997387E-01   1.296306362389934E-01   1.309031126085350E-01
   1.321878421695332E-01   1.334849381257190E-01   1.347945146293023E-01
   1.361166867868825E-01   1.374515706653490E-01   1.387992832977720E-01
   1.401599426892800E-01   1.415336678229250E-01   1.429205786655317E-01
   1.443207961735314E-01   1.457344422987766E-01   1.471616399943368E-01
   1.486025132202728E-01   1.500571869493879E-01   1.515257871729549E-01
   1.530084409064162E-01   1.545052761950560E-01   1.560164221196424E-01
   1.575420088020373E-01   1.590821674107727E-01   1.606370301665914E-01
   1.622067303479488E-01   1.637914022964758E-01   1.653911814223989E-01
   1.670062042099166E-01   1.686366082225281E-01   1.702825321083147E-01
   1.719441156051689E-01   1.736214995459701E-01   1.753148258637049E-01
   1.770242375965281E-01   1.787498788927626E-01   1.804918950158366E-01
   1.822504323491529E-01   1.840256384008903E-01   1.858176618087318E-01
   1.876266523445195E-01   1.894527609188298E-01   1.912961395854696E-01
   1.931569415458876E-01   1.950353211534982E-01   1.969314339179169E-01
   1.988454365091000E-01   2.007774867613892E-01   2.027277436774551E-01
   2.046963674321367E-01   2.066835193761745E-01   2.086893620398318E-01
   2.107140591364011E-01   2.127577755655931E-01   2.148206774168022E-01
   2.169029319722458E-01   2.190047077099737E-01   2.211261743067423E-01
   2.232675026407504E-01   2.254288647942321E-01   2.276104340559011E-01
   2.298123849232444E-01   2.320348931046589E-01   2.342781355214260E-01
   2.365422903095215E-01   2.388275368212538E-01   2.411340556267263E-01
   2.434620285151190E-01   2.458116384957844E-01   2.481830697991513E-01
   2.505765078774326E-01   2.529921394051309E-01   2.554301522793357E-01
   2.578907356198075E-01   2.603740797688434E-01   2.628803762909163E-01
   2.654098179720837E-01   2.679625988191593E-01   2.705389140586402E-01
   2.731389601353852E-01   2.757629347110359E-01   2.784110366621750E-01
   2.810834660782151E-01   2.837804242590102E-01   2.865021137121839E-01
   2.892487381501673E-01   2.920205024869379E-01   2.948176128344536E-01
   2.976402764987741E-01   3.004887019758611E-01   3.033630989470507E-01
   3.062636782741888E-01   3.091906519944226E-01   3.121442333146399E-01
   3.151246366055467E-01   3.181320773953752E-01   3.211667723632150E-01
   3.242289393319561E-01   3.273187972608363E-01   3.304365662375844E-01
   3.335824674701479E-01   3.367567232779983E-01   3.399595570830026E-01
   3.431911933998515E-01   3.464518578260354E-01   3.497417770313573E-01
   3.530611787469720E-01   3.564102917539428E-01   3.597893458713030E-01
   3.631985719436131E-01   3.666382018280024E-01   3.701084683806835E-01
   3.736096054429284E-01   3.771418478264957E-01   3.807054312984967E-01
   3.843005925656875E-01   3.879275692581776E-01   3.915865999125404E-01
   3.952779239543150E-01   3.990017816798855E-01   4.027584142377262E-01
   4.065480636089986E-01   4.103709725874887E-01   4.142273847588692E-01
   4.181175444792756E-01   4.220416968531803E-01   4.260000877105522E-01
   4.299929635832869E-01   4.340205716808945E-01   4.380831598654291E-01
   4.421809766256461E-01   4.463142710503722E-01   4.504832928010734E-01
   4.546882920836059E-01   4.589295196191332E-01   4.632072266141953E-01
   4.675216647299138E-01   4.718730860503155E-01   4.762617430497602E-01
   4.806878885594555E-01   4.851517757330408E-01   4.896536580112258E-01
   4.941937890854645E-01   4.987724228606484E-01   5.033898134168019E-01
   5.080462149697607E-01   5.127418818308167E-01   5.174770683653115E-01
   5.222520289501585E-01   5.270670179302773E-01   5.319222895739205E-01
   5.368180980268741E-01   5.417546972655130E-01   5.467323410486923E-01
   5.517512828684548E-01   5.568117758995340E-01   5.619140729476365E-01
   5.670584263964784E-01   5.722450881535608E-01   5.774743095946603E-01
   5.827463415070170E-01   5.880614340311965E-01   5.934198366016074E-01
   5.988217978856520E-01   6.042675657214901E-01   6.097573870543935E-01
   6.152915078716709E-01   6.208701731361407E-01   6.264936267181306E-01
   6.321621113259824E-01   6.378758684350392E-01   6.436351382150934E-01
   6.494401594562740E-01   6.552911694933495E-01   6.611884041284259E-01
   6.671320975520147E-01   6.731224822624517E-01   6.791597889836407E-01
   6.852442465811019E-01   6.913760819763012E-01   6.975555200592369E-01
   7.037827835992633E-01   7.100580931541248E-01   7.163816669771824E-01
   7.227537209228042E-01   7.291744683499017E-01   7.356441200235870E-01
   7.421628840149278E-01   7.487309655987783E-01   7.553485671496631E-01
   7.620158880356913E-01   7.687331245104780E-01   7.755004696030516E-01
   7.823181130057241E-01   7.891862409599012E-01   7.961050361398128E-01
   8.030746775341389E-01   8.100953403255120E-01   8.171671957678720E-01
   8.242904110616551E-01   8.314651492267930E-01   8.386915689735037E-01
   8.459698245708527E-01   8.533000657130635E-01   8.606824373835607E-01
   8.681170797167218E-01   8.756041278573228E-01   8.831437118176559E-01
   8.907359563323040E-01   8.983809807105509E-01   9.060788986864130E-01
   9.138298182662734E-01   9.216338415741046E-01   9.294910646942610E-01
   9.374015775118303E-01   9.453654635505248E-01   9.533827998081034E-01
   9.614536565893068E-01   9.695780973362987E-01   9.777561784565961E-01
   9.859879491484824E-01   9.942734512238915E-01   1.002612718928754E+00
   1.011005778760796E+00   1.019452649284791E+00   1.027953340945242E+00
   1.036507855876515E+00   1.045116187710389E+00   1.053778321381047E+00
   1.062494232927487E+00   1.071263889293371E+00   1.080087248124287E+00
   1.088964257562459E+00   1.097894856038875E+00   1.106878972062869E+00
   1.115916524009135E+00   1.125007419902210E+00   1.134151557198405E+00
   1.143348822565221E+00   1.152599091658254E+00   1.161902228895591E+00
   1.171258087229739E+00   1.180666507917082E+00   1.190127320284901E+00
   1.199640341495969E+00   1.209205376310757E+00   1.218822216847266E+00
   1.228490642338522E+00   1.238210418887757E+00   1.247981299221320E+00
   1.257803022439348E+00   1.267675313764224E+00   1.277597884286890E+00
   1.287570430711026E+00   1.297592635095172E+00   1.307664164592810E+00
   1.317784671190491E+00   1.327953791444030E+00   1.338171146212851E+00
   1.348436340392524E+00   1.358748962645577E+00   1.369108585130625E+00
   1.379514763229914E+00   1.389967035275327E+00   1.400464922272949E+00
   1.411007927626263E+00   1.421595536858059E+00   1.432227217331148E+00
   1.442902417967973E+00   1.453620568969212E+00   1.464381081531464E+00
   1.475183347564135E+00   1.486026739405630E+00   1.496910609538944E+00
   1.507834290306797E+00   1.518797093626410E+00   1.529798310704059E+00
   1.540837211749535E+00   1.551913045690638E+00   1.563025039887854E+00
   1.574172399849351E+00   1.585354308946441E+00   1.596569928129674E+00
   1.607818395645710E+00   1.619098826755133E+00   1.630410313451391E+00
   1.641751924181014E+00   1.653122703565308E+00   1.664521672123704E+00
   1.675947825998954E+00   1.687400136684361E+00   1.698877550753259E+00
   1.710378989590952E+00   1.721903349129302E+00   1.733449499584216E+00
   1.745016285196243E+00   1.756602523974502E+00   1.768207007444207E+00
   1.779828500398001E+00   1.791465740651375E+00   1.803117438802407E+00
   1.814782277996107E+00   1.826458913693607E+00   1.838145973446504E+00
   1.849842056676610E+00   1.861545734461414E+00   1.873255549325539E+00
   1.884970015038510E+00   1.896687616419121E+00   1.908406809146733E+00
   1.920126019579807E+00   1.931843644582017E+00   1.943558051356254E+00
   1.955267577286886E+00   1.966970529790595E+00   1.978665186176165E+00
   1.990349793513563E+00   2.002022568512691E+00   2.013681697412173E+00
   2.025325335878556E+00   2.036951608916306E+00   2.048558610789001E+00
   2.060144404952096E+00   2.071707023997682E+00   2.083244469611635E+00
   2.094754712543563E+00   2.106235692589983E+00   2.117685318591149E+00
   2.129101468441938E+00   2.140481989117267E+00   2.151824696712437E+00
   2.163127376498880E+00   2.174387782995743E+00   2.185603640057753E+00
   2.196772640979834E+00   2.207892448618931E+00   2.218960695533489E+00
   2.229974984141081E+00   2.240932886894622E+00   2.251831946477669E+00
   2.262669676019258E+00   2.273443559328768E+00   2.284151051151282E+00
   2.294789577443928E+00   2.305356535673669E+00   2.315849295137037E+00
   2.326265197302273E+00   2.336601556174367E+00   2.346855658683466E+00
   2.357024765097126E+00   2.367106109456889E+00   2.377096900039654E+00
   2.386994319844304E+00   2.396795527104065E+00   2.406497655825053E+00
   2.416097816351462E+00   2.425593095957848E+00   2.434980559468954E+00
   2.444257249907513E+00   2.453420189170457E+00   2.462466378733958E+00
   2.471392800387720E+00   2.480196416998908E+00   2.488874173306128E+00
   2.497422996743837E+00   2.505839798297538E+00   2.514121473390135E+00
   2.522264902799793E+00   2.530266953609613E+00   2.538124480189464E+00
   2.545834325210244E+00   2.553393320690874E+00   2.560798289078264E+00
   2.568046044360520E+00   2.575133393213588E+00   2.582057136181564E+00
   2.588814068890820E+00   2.595400983298137E+00   2.601814668972939E+00
   2.608051914413767E+00   2.614109508399049E+00   2.619984241372234E+00
   2.625672906861305E+00   2.631172302932654E+00   2.636479233679315E+00
   2.641590510743430E+00   2.646502954872901E+00   2.651213397512046E+00
   2.655718682426105E+00   2.660015667359373E+00   2.664101225726718E+00
   2.667972248338186E+00   2.671625645156364E+00   2.675058347086121E+00
   2.678267307796323E+00   2.681249505573045E+00   2.684001945203775E+00
   2.686521659892061E+00   2.688805713201993E+00   2.690851201031860E+00
   2.692655253616291E+00   2.694215037556104E+00   2.695527757875079E+00
   2.696590660102763E+00   2.697401032382404E+00   2.697956207603041E+00
   2.698253565554696E+00   2.698290535105600E+00   2.698064596400279E+00
   2.697573283077302E+00   2.696814184505410E+00   2.695784948036684E+00
   2.694483281275368E+00   2.692906954360858E+00   2.691053802263357E+00
   2.688921727090577E+00   2.686508700403845E+00   2.683812765541874E+00
   2.680832039950430E+00   2.677564717516001E+00   2.674009070901578E+00
   2.670163453882535E+00   2.666026303680558E+00   2.661596143293491E+00
   2.656871583818919E+00   2.651851326769224E+00   2.646534166375794E+00
   2.640918991880004E+00   2.635004789808525E+00   2.628790646230435E+00
   2.622275748993600E+00   2.615459389937651E+00   2.608340967080919E+00
   2.600919986778563E+00   2.593196065849114E+00   2.585168933666596E+00
   2.576838434215334E+00   2.568204528104530E+00   2.559267294539641E+00
   2.550026933247542E+00   2.540483766352458E+00   2.530638240199586E+00
   2.520490927123332E+00   2.510042527157048E+00   2.499293869681166E+00
   2.488245915006586E+00   2.476899755890196E+00   2.465256618979407E+00
   2.453317866182573E+00   2.441084995962213E+00   2.428559644547932E+00
   2.415743587066024E+00   2.402638738582718E+00   2.389247155058103E+00
   2.375571034207811E+00   2.361612716269585E+00   2.347374684671923E+00
   2.332859566602054E+00   2.318070133470577E+00   2.303009301270171E+00
   2.287680130825849E+00   2.272085827934332E+00   2.256229743390195E+00
   2.240115372896515E+00   2.223746356857848E+00   2.207126480053427E+00
   2.190259671188565E+00   2.173150002322306E+00   2.155801688169424E+00
   2.138219085274929E+00   2.120406691059258E+00   2.102369142732344E+00
   2.084111216074758E+00   2.065637824084081E+00   2.046954015484602E+00
   2.028064973098355E+00   2.008976012075384E+00   1.989692577980974E+00
   1.970220244730846E+00   1.950564712404218E+00   1.930731804867192E+00
   1.910727467267426E+00   1.890557763364808E+00   1.870228872700691E+00
   1.849747087601655E+00   1.829118810013494E+00   1.808350548160911E+00
   1.787448913028267E+00   1.766420614656661E+00   1.745272458252684E+00
   1.724011340104429E+00   1.702644243300743E+00   1.681178233250283E+00
   1.659620452997865E+00   1.637978118336634E+00   1.616258512716008E+00
   1.594468981946974E+00   1.572616928708217E+00   1.550709806858720E+00
   1.528755115564759E+00   1.506760393251726E+00   1.484733211393718E+00
   1.462681168156382E+00   1.440611881910935E+00   1.418532984639530E+00
   1.396452115254161E+00   1.374376912852914E+00   1.352315009938607E+00
   1.330274025625614E+00   1.308261558860847E+00   1.286285181684581E+00
   1.264352432555842E+00   1.242470809765660E+00   1.220647764959414E+00
   1.198890696787018E+00   1.177206944696655E+00   1.155603782884396E+00
   1.134088414408311E+00   1.112667965471764E+00   1.091349479876559E+00
   1.070139913642666E+00   1.049046129787539E+00   1.028074893254752E+00
   1.007232865978949E+00   9.865266020722022E-01   9.659625431157720E-01
   9.455470135412172E-01   9.252862160856875E-01   9.051862273080873E-01
   8.852529931554682E-01   8.654923245723227E-01   8.459098931491952E-01
   8.265112268109613E-01   8.073017055490015E-01   7.882865572051049E-01
   7.694708533181135E-01   7.508595050468951E-01   7.324572591851932E-01
   7.142686942851791E-01   6.962982169071784E-01   6.785500580131136E-01
   6.610282695207865E-01   6.437367210353064E-01   6.266790967728755E-01
   6.098588926908423E-01   5.932794138365292E-01   5.769437719258983E-01
   5.608548831616935E-01   5.450154662993250E-01   5.294280409674850E-01
   5.140949262492954E-01   4.990182395287091E-01   4.841998956059129E-01
   4.696416060846021E-01   4.553448790331955E-01   4.413110189213482E-01
   4.275411268324515E-01   4.140361009521976E-01   4.007966373327101E-01
   3.878232309311859E-01   3.751161769214565E-01   3.626755722763499E-01
   3.505013176182052E-01   3.385931193343686E-01   3.269504919539670E-01
   3.155727607817236E-01   3.044590647840381E-01   2.936083597220152E-01
   2.830194215255794E-01   2.726908499022707E-01   2.626210721737778E-01
   2.528083473327287E-01   2.432507703117344E-01   2.339462764561730E-01
   2.248926461916982E-01   2.160875098769839E-01   2.075283528317563E-01
   1.992125205297344E-01   1.911372239456935E-01   1.832995450454888E-01
   1.756964424075311E-01   1.683247569638955E-01   1.611812178489629E-01
   1.542624483432540E-01   1.475649718999121E-01   1.410852182411205E-01
   1.348195295116167E-01   1.287641664763753E-01   1.229153147494847E-01
   1.172690910412342E-01   1.118215494104604E-01   1.065686875092766E-01
   1.015064528074167E-01   9.663074878358273E-02   9.193744107136931E-02
   8.742236354757178E-02   8.308132435094631E-02   7.891011181979293E-02
   7.490450033706728E-02   7.106025607209605E-02   6.737314260837114E-02
   6.383892644732793E-02   6.045338237847249E-02   5.721229870670701E-02
   5.411148232821304E-02   5.114676364678407E-02   4.831400132305141E-02
   4.560908684961806E-02   4.302794894570119E-02   4.056655776548412E-02
   3.822092891498912E-02   3.598712727290206E-02   3.386127061140538E-02
   3.183953301370574E-02   2.991814808557297E-02   2.809341195883706E-02
   2.636168608541569E-02   2.471939982106540E-02   2.316305279866112E-02
   2.168921709141065E-02   2.029453916699935E-02   1.897574163423415E-02
   1.772962478431363E-02   1.655306792938875E-02   1.544303054159704E-02
   1.439655319624824E-02   1.341075832331132E-02   1.248285077179864E-02
   1.161011819206281E-02   1.078993124141351E-02   1.001974361882438E-02
   9.297091934832771E-03   8.619595423038187E-03   7.984955499876743E-03
   7.390955179588175E-03   6.835458351500662E-03   6.316408926935180E-03
   5.831829863175387E-03   5.379822072061855E-03   4.958563220850935E-03
   4.566306433029523E-03   4.201378896797622E-03   3.862180388921802E-03
   3.547181721625498E-03   3.254923120117421E-03   2.984012538268469E-03
   2.733123919831517E-03   2.500995412458754E-03   2.286427541609246E-03
   2.088281351256620E-03   1.905476518104711E-03   1.736989445799388E-03
   1.581851345389108E-03   1.439146308036760E-03   1.308009375722814E-03
   1.187624615406120E-03   1.077223201825904E-03   9.760815138379177E-04
   8.835192488811273E-04   7.988975598702723E-04   7.216172185055983E-04
   6.511168086855886E-04   5.868709534029638E-04   5.283885781999601E-04
   4.752112139572329E-04   4.269113414928862E-04   3.830907801552807E-04
   3.433791223065265E-04   3.074322153139765E-04   2.749306923955982E-04
   2.455785534027457E-04   2.191017963714716E-04   1.952471004319423E-04
   1.737805604355127E-04   1.544864734413089E-04   1.371661769993971E-04
   1.216369389763385E-04   1.077308984916077E-04   9.529405737028009E-05
   8.418532136869851E-05   7.427559029541134E-05   6.544689602913026E-05
   5.759158732810608E-05   5.061156023013679E-05   4.441753275811343E-05
   3.892836257110030E-05   3.407040613395271E-05   2.977691791813217E-05
   2.598748809188913E-05   2.264751710923119E-05   1.970772556474100E-05
   1.712369764669079E-05   1.485545649572634E-05   1.286706976222040E-05
   1.112628365304776E-05   9.604183767577290E-06   8.274881041120167E-06
   7.115221138412879E-06   6.104515665282928E-06   5.224293588053032E-06
   4.458071263662889E-06   3.791139470828908E-06   3.210365945520015E-06
   2.704010400380217E-06   2.261562088938021E-06   1.873528730390059E-06
   1.532733072838594E-06   1.224680466126199E-06   0.000000000000000E+00
   0.000000000000000E+00   0.000000000000000E+00   0.000000000000000E+00
   0.000000000000000E+00   0.000000000000000E+00   0.000000000000000E+00
   0.000000000000000E+00   0.000000000000000E+00   0.000000000000000E+00
   0.000000000000000E+00   0.000000000000000E+00   0.000000000000000E+00
   0.000000000000000E+00   0.000000000000000E+00   0.000000000000000E+00
   0.000000000000000E+00   0.000000000000000E+00   0.000000000000000E+00
   0.000000000000000E+00   0.000000000000000E+00   0.000000000000000E+00
   0.000000000000000E+00   0.000000000000000E+00   0.000000000000000E+00
   0.000000000000000E+00   0.000000000000000E+00   0.000000000000000E+00
   0.000000000000000E+00   0.000000000000000E+00   0.000000000000000E+00
   0.000000000000000E+00   0.000000000000000E+00   0.000000000000000E+00
   0.000000000000000E+00   0.000000000000000E+00   0.000000000000000E+00
   0.000000000000000E+00   0.000000000000000E+00   0.000000000000000E+00
   0.000000000000000E+00   0.000000000000000E+00   0.000000000000000E+00
   0.000000000000000E+00   0.000000000000000E+00   0.000000000000000E+00
   0.000000000000000E+00   0.000000000000000E+00   0.000000000000000E+00
   0.000000000000000E+00   0.000000000000000E+00   0.000000000000000E+00
   0.000000000000000E+00   0.000000000000000E+00   0.000000000000000E+00
   0.000000000000000E+00   0.000000000000000E+00   0.000000000000000E+00
   0.000000000000000E+00   0.000000000000000E+00   0.000000000000000E+00
   0.000000000000000E+00   0.000000000000000E+00   0.000000000000000E+00
   0.000000000000000E+00   0.000000000000000E+00   0.000000000000000E+00
   0.000000000000000E+00   0.000000000000000E+00   0.000000000000000E+00
   0.000000000000000E+00   0.000000000000000E+00   0.000000000000000E+00
   0.000000000000000E+00   0.000000000000000E+00   0.000000000000000E+00
   0.000000000000000E+00   0.000000000000000E+00   0.000000000000000E+00
   0.000000000000000E+00   0.000000000000000E+00   0.000000000000000E+00
   0.000000000000000E+00   0.000000000000000E+00   0.000000000000000E+00
   0.000000000000000E+00   0.000000000000000E+00   0.000000000000000E+00
   0.000000000000000E+00   0.000000000000000E+00   0.000000000000000E+00
   0.000000000000000E+00   0.000000000000000E+00   0.000000000000000E+00
   0.000000000000000E+00   0.000000000000000E+00   0.000000000000000E+00
   0.000000000000000E+00   0.000000000000000E+00   0.000000000000000E+00
   0.000000000000000E+00   0.000000000000000E+00   0.000000000000000E+00
   0.000000000000000E+00   0.000000000000000E+00   0.000000000000000E+00
   0.000000000000000E+00   0.000000000000000E+00   0.000000000000000E+00
   0.000000000000000E+00   0.000000000000000E+00   0.000000000000000E+00
   0.000000000000000E+00   0.000000000000000E+00   0.000000000000000E+00
   0.000000000000000E+00   0.000000000000000E+00   0.000000000000000E+00
   0.000000000000000E+00   0.000000000000000E+00   0.000000000000000E+00
   0.000000000000000E+00   0.000000000000000E+00   0.000000000000000E+00
   0.000000000000000E+00   0.000000000000000E+00   0.000000000000000E+00
   0.000000000000000E+00   0.000000000000000E+00   0.000000000000000E+00
   0.000000000000000E+00   0.000000000000000E+00   0.000000000000000E+00
   0.000000000000000E+00   0.000000000000000E+00   0.000000000000000E+00
   0.000000000000000E+00   0.000000000000000E+00   0.000000000000000E+00
   0.000000000000000E+00   0.000000000000000E+00   0.000000000000000E+00
   0.000000000000000E+00   0.000000000000000E+00   0.000000000000000E+00
   0.000000000000000E+00   0.000000000000000E+00   0.000000000000000E+00
   0.000000000000000E+00   0.000000000000000E+00   0.000000000000000E+00
   0.000000000000000E+00   0.000000000000000E+00   0.000000000000000E+00
   0.000000000000000E+00   0.000000000000000E+00   0.000000000000000E+00
   0.000000000000000E+00   0.000000000000000E+00   0.000000000000000E+00
   0.000000000000000E+00   0.000000000000000E+00   0.000000000000000E+00
   0.000000000000000E+00   0.000000000000000E+00   0.000000000000000E+00
   0.000000000000000E+00   0.000000000000000E+00   0.000000000000000E+00
   0.000000000000000E+00   0.000000000000000E+00   0.000000000000000E+00
   0.000000000000000E+00   0.000000000000000E+00   0.000000000000000E+00
   0.000000000000000E+00   0.000000000000000E+00   0.000000000000000E+00
   0.000000000000000E+00   0.000000000000000E+00   0.000000000000000E+00
   0.000000000000000E+00   0.000000000000000E+00   0.000000000000000E+00
   0.000000000000000E+00   0.000000000000000E+00   0.000000000000000E+00
   0.000000000000000E+00   0.000000000000000E+00   0.000000000000000E+00
   0.000000000000000E+00   0.000000000000000E+00   0.000000000000000E+00
   0.000000000000000E+00   0.000000000000000E+00   0.000000000000000E+00
   0.000000000000000E+00   0.000000000000000E+00   0.000000000000000E+00
   0.000000000000000E+00   0.000000000000000E+00   0.000000000000000E+00
   0.000000000000000E+00   0.000000000000000E+00   0.000000000000000E+00
   0.000000000000000E+00   0.000000000000000E+00   0.000000000000000E+00
   0.000000000000000E+00   0.000000000000000E+00   0.000000000000000E+00
   0.000000000000000E+00   0.000000000000000E+00   0.000000000000000E+00
   0.000000000000000E+00   0.000000000000000E+00   0.000000000000000E+00
   0.000000000000000E+00   0.000000000000000E+00   0.000000000000000E+00
   0.000000000000000E+00   0.000000000000000E+00   0.000000000000000E+00
   0.000000000000000E+00   0.000000000000000E+00   0.000000000000000E+00
   0.000000000000000E+00   0.000000000000000E+00   0.000000000000000E+00
   0.000000000000000E+00   0.000000000000000E+00   0.000000000000000E+00
   0.000000000000000E+00   0.000000000000000E+00   0.000000000000000E+00
   0.000000000000000E+00   0.000000000000000E+00   0.000000000000000E+00
   0.000000000000000E+00   0.000000000000000E+00   0.000000000000000E+00
   0.000000000000000E+00   0.000000000000000E+00   0.000000000000000E+00
   0.000000000000000E+00   0.000000000000000E+00   0.000000000000000E+00
   0.000000000000000E+00   0.000000000000000E+00   0.000000000000000E+00
   0.000000000000000E+00   0.000000000000000E+00   0.000000000000000E+00
   0.000000000000000E+00   0.000000000000000E+00   0.000000000000000E+00
   0.000000000000000E+00   0.000000000000000E+00   0.000000000000000E+00
   0.000000000000000E+00   0.000000000000000E+00   0.000000000000000E+00
   0.000000000000000E+00   0.000000000000000E+00   0.000000000000000E+00
   0.000000000000000E+00   0.000000000000000E+00   0.000000000000000E+00
   0.000000000000000E+00   0.000000000000000E+00   0.000000000000000E+00
   0.000000000000000E+00   0.000000000000000E+00   0.000000000000000E+00
   0.000000000000000E+00   0.000000000000000E+00   0.000000000000000E+00
   0.000000000000000E+00   0.000000000000000E+00   0.000000000000000E+00
   0.000000000000000E+00   0.000000000000000E+00   0.000000000000000E+00
   0.000000000000000E+00   0.000000000000000E+00   0.000000000000000E+00
   0.000000000000000E+00   0.000000000000000E+00   0.000000000000000E+00
   0.000000000000000E+00   0.000000000000000E+00   0.000000000000000E+00
   0.000000000000000E+00   0.000000000000000E+00   0.000000000000000E+00
   0.000000000000000E+00   0.000000000000000E+00   0.000000000000000E+00
   0.000000000000000E+00   0.000000000000000E+00   0.000000000000000E+00
   0.000000000000000E+00   0.000000000000000E+00   0.000000000000000E+00
   0.000000000000000E+00   0.000000000000000E+00   0.000000000000000E+00
   0.000000000000000E+00   0.000000000000000E+00   0.000000000000000E+00
   0.000000000000000E+00   0.000000000000000E+00   0.000000000000000E+00
   0.000000000000000E+00   0.000000000000000E+00   0.000000000000000E+00
   0.000000000000000E+00   0.000000000000000E+00   0.000000000000000E+00
   0.000000000000000E+00   0.000000000000000E+00   0.000000000000000E+00
   0.000000000000000E+00   0.000000000000000E+00   0.000000000000000E+00
   0.000000000000000E+00   0.000000000000000E+00   0.000000000000000E+00
   0.000000000000000E+00   0.000000000000000E+00   0.000000000000000E+00
   0.000000000000000E+00   0.000000000000000E+00   0.000000000000000E+00
   0.000000000000000E+00   0.000000000000000E+00   0.000000000000000E+00
   0.000000000000000E+00   0.000000000000000E+00   0.000000000000000E+00
   0.000000000000000E+00   0.000000000000000E+00   0.000000000000000E+00
   0.000000000000000E+00   0.000000000000000E+00   0.000000000000000E+00
   0.000000000000000E+00   0.000000000000000E+00   0.000000000000000E+00
   0.000000000000000E+00   0.000000000000000E+00   0.000000000000000E+00
   0.000000000000000E+00   0.000000000000000E+00   0.000000000000000E+00
   0.000000000000000E+00   0.000000000000000E+00   0.000000000000000E+00
   0.000000000000000E+00   0.000000000000000E+00   0.000000000000000E+00
   0.000000000000000E+00   0.000000000000000E+00   0.000000000000000E+00
   0.000000000000000E+00   0.000000000000000E+00   0.000000000000000E+00
   0.000000000000000E+00   0.000000000000000E+00   0.000000000000000E+00
   0.000000000000000E+00   0.000000000000000E+00   0.000000000000000E+00
   0.000000000000000E+00   0.000000000000000E+00   0.000000000000000E+00
   0.000000000000000E+00   0.000000000000000E+00   0.000000000000000E+00
   0.000000000000000E+00   0.000000000000000E+00   0.000000000000000E+00
   0.000000000000000E+00   0.000000000000000E+00   0.000000000000000E+00
   0.000000000000000E+00   0.000000000000000E+00   0.000000000000000E+00
   0.000000000000000E+00   0.000000000000000E+00   0.000000000000000E+00
   0.000000000000000E+00   0.000000000000000E+00   0.000000000000000E+00
   0.000000000000000E+00   0.000000000000000E+00   0.000000000000000E+00
   0.000000000000000E+00   0.000000000000000E+00   0.000000000000000E+00
   0.000000000000000E+00   0.000000000000000E+00   0.000000000000000E+00
   0.000000000000000E+00   0.000000000000000E+00   0.000000000000000E+00
   0.000000000000000E+00   0.000000000000000E+00   0.000000000000000E+00
   0.000000000000000E+00   0.000000000000000E+00   0.000000000000000E+00
   0.000000000000000E+00   0.000000000000000E+00   0.000000000000000E+00
   0.000000000000000E+00   0.000000000000000E+00   0.000000000000000E+00
   0.000000000000000E+00   0.000000000000000E+00   0.000000000000000E+00
   0.000000000000000E+00
      </PP_GIPAW_CORE_ORBITAL.1>
      <PP_GIPAW_CORE_ORBITAL.2 size="1525" index="2" label="2S" n="2.00000000000000" l="0.000000000000000E+000">
   6.759173260168528E-04   6.826746874105772E-04   6.894996043044314E-04
   6.963927520723277E-04   7.033547852450344E-04   7.103863339232350E-04
   7.174881074468837E-04   7.246608039988028E-04   7.319051317482832E-04
   7.392218059206682E-04   7.466115488669247E-04   7.540750901344695E-04
   7.616131665386898E-04   7.692265222351599E-04   7.769159087925719E-04
   7.846820852663866E-04   7.925258182732101E-04   8.004478820659049E-04
   8.084490586094413E-04   8.165301376574980E-04   8.246919168298172E-04
   8.329352016903226E-04   8.412608058260085E-04   8.496695509266065E-04
   8.581622668650361E-04   8.667397917786506E-04   8.754029721512815E-04
   8.841526628960935E-04   8.929897274392540E-04   9.019150378044282E-04
   9.109294746981062E-04   9.200339275957703E-04   9.292292948289111E-04
   9.385164836732772E-04   9.478964104349379E-04   9.573700005334497E-04
   9.669381886191284E-04   9.766019186770176E-04   9.863621440240754E-04
   9.962198274927083E-04   1.006175941643951E-03   1.016231468571770E-03
   1.026387400012061E-03   1.036644737716221E-03   1.047004493462917E-03
   1.057467689078325E-03   1.068035356421762E-03   1.078708537526018E-03
   1.089488285099098E-03   1.100375662392721E-03   1.111371742904827E-03
   1.122477610919816E-03   1.133694361523642E-03   1.145023100564442E-03
   1.156464945266509E-03   1.168021023829136E-03   1.179692475417077E-03
   1.191480450707023E-03   1.203386111829503E-03   1.215410632506272E-03
   1.227555198055434E-03   1.239821005534617E-03   1.252209263962369E-03
   1.264721194420714E-03   1.277358030185831E-03   1.290121016878985E-03
   1.303011412272090E-03   1.316030486585683E-03   1.329179522865250E-03
   1.342459816791365E-03   1.355872676964330E-03   1.369419425161626E-03
   1.383101396229623E-03   1.396919938032979E-03   1.410876411927571E-03
   1.424972192948228E-03   1.439208669827283E-03   1.453587244873179E-03
   1.468109334275692E-03   1.482776368724295E-03   1.497589792979007E-03
   1.512551065754504E-03   1.527661660476532E-03   1.542923065486187E-03
   1.558336783777665E-03   1.573904333192051E-03   1.589627246429844E-03
   1.605507071409137E-03   1.621545371819079E-03   1.637743726935530E-03
   1.654103731535351E-03   1.670626996094095E-03   1.687315147095127E-03
   1.704169827320884E-03   1.721192695781190E-03   1.738385427652608E-03
   1.755749715003053E-03   1.773287266895687E-03   1.790999809341852E-03
   1.808889085344977E-03   1.826956855133554E-03   1.845204896516061E-03
   1.863635004782274E-03   1.882248992937974E-03   1.901048692268624E-03
   1.920035952319915E-03   1.939212640652771E-03   1.958580643516295E-03
   1.978141865911488E-03   1.997898231700307E-03   2.017851683787828E-03
   2.038004184098412E-03   2.058357714242812E-03   2.078914275693858E-03
   2.099675889605069E-03   2.120644597039972E-03   2.141822459167092E-03
   2.163211557945042E-03   2.184813995933094E-03   2.206631896146193E-03
   2.228667402838605E-03   2.250922681695537E-03   2.273399919737068E-03
   2.296101325579984E-03   2.319029129906648E-03   2.342185585415045E-03
   2.365572966699459E-03   2.389193570939376E-03   2.413049718422830E-03
   2.437143752431895E-03   2.461478039553991E-03   2.486054969693782E-03
   2.510876956109136E-03   2.535946436003193E-03   2.561265870829369E-03
   2.586837746374394E-03   2.612664573089175E-03   2.638748886137690E-03
   2.665093245451337E-03   2.691700236579059E-03   2.718572470873069E-03
   2.745712585370100E-03   2.773123243227047E-03   2.800807133847886E-03
   2.828766973011133E-03   2.857005503421864E-03   2.885525495025247E-03
   2.914329745021440E-03   2.943421078234844E-03   2.972802347425946E-03
   3.002476433653153E-03   3.032446246297865E-03   3.062714723413927E-03
   3.093284832073648E-03   3.124159568613506E-03   3.155341959170237E-03
   3.186835059642964E-03   3.218641955989848E-03   3.250765764818950E-03
   3.283209633416087E-03   3.315976739788097E-03   3.349070293349983E-03
   3.382493535291753E-03   3.416249738807582E-03   3.450342209495940E-03
   3.484774285364922E-03   3.519549337311319E-03   3.554670769555986E-03
   3.590142019754257E-03   3.625966559240044E-03   3.662147893811254E-03
   3.698689563821502E-03   3.735595144234763E-03   3.772868245336791E-03
   3.810512512953238E-03   3.848531628715445E-03   3.886929310453631E-03
   3.925709312699853E-03   3.964875427056735E-03   4.004431482282754E-03
   4.044381344588817E-03   4.084728918303985E-03   4.125478146213511E-03
   4.166633009796811E-03   4.208197529646424E-03   4.250175765811446E-03
   4.292571818313861E-03   4.335389827431020E-03   4.378633974032307E-03
   4.422308480073683E-03   4.466417608963300E-03   4.510965665906829E-03
   4.555956998273831E-03   4.601395996204018E-03   4.647287092899605E-03
   4.693634764949616E-03   4.740443532878476E-03   4.787717961504917E-03
   4.835462660381327E-03   4.883682284215175E-03   4.932381533314016E-03
   4.981565154020920E-03   5.031237939150593E-03   5.081404728453192E-03
   5.132070409056168E-03   5.183239915866784E-03   5.234918232046969E-03
   5.287110389532212E-03   5.339821469472769E-03   5.393056602705983E-03
   5.446820970208209E-03   5.501119803521947E-03   5.555958385348773E-03
   5.611342050008724E-03   5.667276183865994E-03   5.723766225860689E-03
   5.780817668016551E-03   5.838436056017414E-03   5.896626989618950E-03
   5.955396123146122E-03   6.014749166052339E-03   6.074691883440023E-03
   6.135230096670778E-03   6.196369683791342E-03   6.258116580059162E-03
   6.320476778554392E-03   6.383456330684039E-03   6.447061346761352E-03
   6.511297996619440E-03   6.576172510084014E-03   6.641691177365818E-03
   6.707860349910289E-03   6.774686441057524E-03   6.842175926378508E-03
   6.910335344184847E-03   6.979171296297128E-03   7.048690448715722E-03
   7.118899532005892E-03   7.189805342048600E-03   7.261414740820153E-03
   7.333734656726853E-03   7.406772085135707E-03   7.480534089282352E-03
   7.555027801001938E-03   7.630260421093954E-03   7.706239219932521E-03
   7.782971538322503E-03   7.860464788037504E-03   7.938726452519139E-03
   8.017764087537804E-03   8.097585321866748E-03   8.178197857961287E-03
   8.259609472643672E-03   8.341828017793596E-03   8.424861421044856E-03
   8.508717686487867E-03   8.593404895372869E-03   8.678931206853140E-03
   8.765304858818362E-03   8.852534168445472E-03   8.940627532625185E-03
   9.029593429310584E-03   9.119440418209538E-03   9.210177140881091E-03
   9.301812321960331E-03   9.394354769960081E-03   9.487813377964298E-03
   9.582197124727528E-03   9.677515074867651E-03   9.773776379780481E-03
   9.870990279110746E-03   9.969166100822482E-03   1.006831326201597E-02
   1.016844127009488E-02   1.026955972337867E-02   1.037167831199626E-02
   1.047480681870873E-02   1.057895511975230E-02   1.068413318568608E-02
   1.079035108224657E-02   1.089761897120943E-02   1.100594711125787E-02
   1.111534585885780E-02   1.122582566914006E-02   1.133739709678938E-02
   1.145007079694047E-02   1.156385752608092E-02   1.167876814296122E-02
   1.179481360951185E-02   1.191200499176730E-02   1.203035346079736E-02
   1.214987029364541E-02   1.227056687427393E-02   1.239245469451725E-02
   1.251554535504153E-02   1.263985056631212E-02   1.276538214956774E-02
   1.289215203780195E-02   1.302017227674480E-02   1.314945502590349E-02
   1.328001255973495E-02   1.341185726842031E-02   1.354500165851441E-02
   1.367945835465610E-02   1.381524010018062E-02   1.395235975780398E-02
   1.409083031155971E-02   1.423066486773502E-02   1.437187665545848E-02
   1.451447902827399E-02   1.465848546489414E-02   1.480390956991747E-02
   1.495076507556099E-02   1.509906584242876E-02   1.524882586072173E-02
   1.540005925133603E-02   1.555278026698783E-02   1.570700329334545E-02
   1.586274285016855E-02   1.602001359245480E-02   1.617883031159448E-02
   1.633920793653248E-02   1.650116153493805E-02   1.666470631438216E-02
   1.682985762352247E-02   1.699663095329594E-02   1.716504193811896E-02
   1.733510635709526E-02   1.750684013523123E-02   1.768025934465895E-02
   1.785538020586673E-02   1.803221908893720E-02   1.821079251479295E-02
   1.839111715644973E-02   1.857320984027703E-02   1.875708754726628E-02
   1.894276741430634E-02   1.913026673546653E-02   1.931960296328702E-02
   1.951079371007651E-02   1.970385674921729E-02   1.989881001647763E-02
   2.009567161133128E-02   2.029445979828428E-02   2.049519300820892E-02
   2.069788983968476E-02   2.090256906034674E-02   2.110924960824031E-02
   2.131795059318347E-02   2.152869129813575E-02   2.174149118057397E-02
   2.195636987387484E-02   2.217334718870415E-02   2.239244311441269E-02
   2.261367782043866E-02   2.283707165771658E-02   2.306264516009257E-02
   2.329041904574593E-02   2.352041421861701E-02   2.375265176984106E-02
   2.398715297918829E-02   2.422393931650971E-02   2.446303244318882E-02
   2.470445421359909E-02   2.494822667656699E-02   2.519437207684041E-02
   2.544291285656269E-02   2.569387165675199E-02   2.594727131878617E-02
   2.620313488588109E-02   2.646148560463982E-02   2.672234692682056E-02
   2.698574251064734E-02   2.725169622150546E-02   2.752023213367239E-02
   2.779137453222844E-02   2.806514791555617E-02   2.834157699663640E-02
   2.862068670301995E-02   2.890250217916975E-02   2.918704878826850E-02
   2.947435211345475E-02   2.976443795947344E-02   3.005733235419798E-02
   3.035306155017516E-02   3.065165202617098E-02   3.095313048871856E-02
   3.125752387366722E-02   3.156485934773315E-02   3.187516431005102E-02
   3.218846639372641E-02   3.250479346738883E-02   3.282417363674490E-02
   3.314663524613152E-02   3.347220688006877E-02   3.380091736481208E-02
   3.413279576990345E-02   3.446787140972150E-02   3.480617384502974E-02
   3.514773288452303E-02   3.549257858637168E-02   3.584074125976291E-02
   3.619225146643924E-02   3.654714002223354E-02   3.690543799860022E-02
   3.726717672414226E-02   3.763238778613360E-02   3.800110303203654E-02
   3.837335457101366E-02   3.874917477543382E-02   3.912859628237184E-02
   3.951165199510128E-02   3.989837508458004E-02   4.028879899092803E-02
   4.068295742489664E-02   4.108088436932933E-02   4.148261408061293E-02
   4.188818109011903E-02   4.229762020563494E-02   4.271096651278362E-02
   4.312825537643206E-02   4.354952244208742E-02   4.397480363728040E-02
   4.440413517293523E-02   4.483755354472547E-02   4.527509553441521E-02
   4.571679821118479E-02   4.616269893294049E-02   4.661283534760739E-02
   4.706724539440471E-02   4.752596730510294E-02   4.798903960526191E-02
   4.845650111544917E-02   4.892839095243763E-02   4.940474853038204E-02
   4.988561356197303E-02   5.037102605956828E-02   5.086102633629964E-02
   5.135565500715555E-02   5.185495299003758E-02   5.235896150679051E-02
   5.286772208420472E-02   5.338127655498998E-02   5.389966705871981E-02
   5.442293604274518E-02   5.495112626307665E-02   5.548428078523384E-02
   5.602244298506119E-02   5.656565654950885E-02   5.711396547737763E-02
   5.766741408002684E-02   5.822604698204373E-02   5.878990912187364E-02
   5.935904575240916E-02   5.993350244153756E-02   6.051332507264474E-02
   6.109855984507479E-02   6.168925327454346E-02   6.228545219350454E-02
   6.288720375146743E-02   6.349455541526466E-02   6.410755496926797E-02
   6.472625051555118E-02   6.535069047399870E-02   6.598092358235788E-02
   6.661699889623371E-02   6.725896578902422E-02   6.790687395179515E-02
   6.856077339309181E-02   6.922071443868687E-02   6.988674773126194E-02
   7.055892423002157E-02   7.123729521023740E-02   7.192191226272109E-02
   7.261282729322370E-02   7.331009252175995E-02   7.401376048185522E-02
   7.472388401971328E-02   7.544051629330284E-02   7.616371077136072E-02
   7.689352123230957E-02   7.763000176308800E-02   7.837320675789090E-02
   7.912319091681771E-02   7.988000924442634E-02   8.064371704819046E-02
   8.141436993685769E-02   8.219202381870652E-02   8.297673489969903E-02
   8.376855968152748E-02   8.456755495955173E-02   8.537377782062519E-02
   8.618728564080649E-02   8.700813608295427E-02   8.783638709420219E-02
   8.867209690331167E-02   8.951532401789906E-02   9.036612722153481E-02
   9.122456557071124E-02   9.209069839167636E-02   9.296458527713022E-02
   9.384628608278110E-02   9.473586092375799E-02   9.563337017087639E-02
   9.653887444675413E-02   9.745243462177365E-02   9.837411180988767E-02
   9.930396736426449E-02   1.002420628727695E-01   1.011884601532798E-01
   1.021432212488267E-01   1.031064084225653E-01   1.040780841525639E-01
   1.050583111264121E-01   1.060471522356427E-01   1.070446705699633E-01
   1.080509294112935E-01   1.090659922276043E-01   1.100899226665552E-01
   1.111227845489242E-01   1.121646418618273E-01   1.132155587517227E-01
   1.142755995171952E-01   1.153448286015164E-01   1.164233105849762E-01
   1.175111101769812E-01   1.186082922079144E-01   1.197149216207525E-01
   1.208310634624350E-01   1.219567828749810E-01   1.230921450863482E-01
   1.242372154010286E-01   1.253920591903772E-01   1.265567418826661E-01
   1.277313289528617E-01   1.289158859121162E-01   1.301104782969713E-01
   1.313151716582659E-01   1.325300315497432E-01   1.337551235163522E-01
   1.349905130822360E-01   1.362362657384032E-01   1.374924469300745E-01
   1.387591220436991E-01   1.400363563936364E-01   1.413242152084929E-01
   1.426227636171130E-01   1.439320666342129E-01   1.452521891456535E-01
   1.465831958933460E-01   1.479251514597816E-01   1.492781202521804E-01
   1.506421664862522E-01   1.520173541695619E-01   1.534037470844932E-01
   1.548014087708023E-01   1.562104025077566E-01   1.576307912958487E-01
   1.590626378380803E-01   1.605060045208079E-01   1.619609533941421E-01
   1.634275461518944E-01   1.649058441110628E-01   1.663959081908489E-01
   1.678977988911977E-01   1.694115762708547E-01   1.709372999249288E-01
   1.724750289619564E-01   1.740248219804554E-01   1.755867370449641E-01
   1.771608316615536E-01   1.787471627528072E-01   1.803457866322585E-01
   1.819567589782781E-01   1.835801348074018E-01   1.852159684470908E-01
   1.868643135079160E-01   1.885252228551557E-01   1.901987485798008E-01
   1.918849419689552E-01   1.935838534756250E-01   1.952955326878862E-01
   1.970200282974218E-01   1.987573880674193E-01   2.005076587998192E-01
   2.022708863019055E-01   2.040471153522283E-01   2.058363896658495E-01
   2.076387518589018E-01   2.094542434124518E-01   2.112829046356575E-01
   2.131247746282104E-01   2.149798912420531E-01   2.168482910423618E-01
   2.187300092677854E-01   2.206250797899296E-01   2.225335350720789E-01
   2.244554061271433E-01   2.263907224748235E-01   2.283395120979822E-01
   2.303018013982129E-01   2.322776151505963E-01   2.342669764576347E-01
   2.362699067023536E-01   2.382864255005629E-01   2.403165506522648E-01
   2.423602980922031E-01   2.444176818395391E-01   2.464887139466494E-01
   2.485734044470323E-01   2.506717613023161E-01   2.527837903483574E-01
   2.549094952404221E-01   2.570488773974390E-01   2.592019359453167E-01
   2.613686676593143E-01   2.635490669054585E-01   2.657431255809966E-01
   2.679508330538771E-01   2.701721761012498E-01   2.724071388469766E-01
   2.746557026981444E-01   2.769178462805724E-01   2.791935453733053E-01
   2.814827728420851E-01   2.837854985717942E-01   2.861016893978610E-01
   2.884313090366222E-01   2.907743180146344E-01   2.931306735969282E-01
   2.955003297141983E-01   2.978832368889240E-01   3.002793421604131E-01
   3.026885890087646E-01   3.051109172777449E-01   3.075462630965718E-01
   3.099945588006023E-01   3.124557328509199E-01   3.149297097528176E-01
   3.174164099731723E-01   3.199157498567094E-01   3.224276415411527E-01
   3.249519928712595E-01   3.274887073117374E-01   3.300376838590431E-01
   3.325988169520616E-01   3.351719963816657E-01   3.377571071991565E-01
   3.403540296235858E-01   3.429626389479611E-01   3.455828054443369E-01
   3.482143942677936E-01   3.508572653593081E-01   3.535112733475203E-01
   3.561762674493997E-01   3.588520913698189E-01   3.615385832000385E-01
   3.642355753151124E-01   3.669428942702198E-01   3.696603606959339E-01
   3.723877891924357E-01   3.751249882226847E-01   3.778717600045565E-01
   3.806279004019613E-01   3.833931988149549E-01   3.861674380688577E-01
   3.889503943023970E-01   3.917418368548883E-01   3.945415281524746E-01
   3.973492235934404E-01   4.001646714326224E-01   4.029876126649360E-01
   4.058177809080422E-01   4.086549022841752E-01   4.114986953011599E-01
   4.143488707326412E-01   4.172051314975555E-01   4.200671725388729E-01
   4.229346807016399E-01   4.258073346103546E-01   4.286848045457096E-01
   4.315667523207344E-01   4.344528311563775E-01   4.373426855565643E-01
   4.402359511827711E-01   4.431322547281581E-01   4.460312137913030E-01
   4.489324367495822E-01   4.518355226322459E-01   4.547400609932365E-01
   4.576456317838004E-01   4.605518052249481E-01   4.634581416798149E-01
   4.663641915259816E-01   4.692694950278133E-01   4.721735822088770E-01
   4.750759727245027E-01   4.779761757345536E-01   4.808736897764715E-01
   4.837680026386707E-01   4.866585912343505E-01   4.895449214758030E-01
   4.924264481492928E-01   4.953026147905890E-01   4.981728535612329E-01
   5.010365851256244E-01   5.038932185290176E-01   5.067421510765137E-01
   5.095827682131462E-01   5.124144434051532E-01   5.152365380225361E-01
   5.180484012230061E-01   5.208493698374227E-01   5.236387682568323E-01
   5.264159083212168E-01   5.291800892100645E-01   5.319305973348830E-01
   5.346667062337687E-01   5.373876764681598E-01   5.400927555218963E-01
   5.427811777027162E-01   5.454521640463202E-01   5.481049222231408E-01
   5.507386464479525E-01   5.533525173924676E-01   5.559457021010616E-01
   5.585173539097756E-01   5.610666123687502E-01   5.635926031682438E-01
   5.660944380683964E-01   5.685712148328987E-01   5.710220171667346E-01
   5.734459146581641E-01   5.758419627251208E-01   5.782092025661991E-01
   5.805466611164114E-01   5.828533510078976E-01   5.851282705357739E-01
   5.873704036293115E-01   5.895787198286370E-01   5.917521742671538E-01
   5.938897076598829E-01   5.959902462979281E-01   5.980527020492722E-01
   6.000759723661161E-01   6.020589402989724E-01   6.040004745177345E-01
   6.058994293399372E-01   6.077546447664375E-01   6.095649465247386E-01
   6.113291461201902E-01   6.130460408952960E-01   6.147144140973666E-01
   6.163330349547566E-01   6.179006587619261E-01   6.194160269735749E-01
   6.208778673080935E-01   6.222848938605832E-01   6.236358072256973E-01
   6.249292946305592E-01   6.261640300780119E-01   6.273386745004630E-01
   6.284518759245815E-01   6.295022696471150E-01   6.304884784220871E-01
   6.314091126596456E-01   6.322627706368282E-01   6.330480387205135E-01
   6.337634916028305E-01   6.344076925492953E-01   6.349791936599473E-01
   6.354765361437583E-01   6.358982506065857E-01   6.362428573529417E-01
   6.365088667018531E-01   6.366947793170802E-01   6.367990865519673E-01
   6.368202708091951E-01   6.367568059157016E-01   6.366071575130386E-01
   6.363697834634308E-01   6.360431342717949E-01   6.356256535239850E-01
   6.351157783415147E-01   6.345119398530126E-01   6.338125636826604E-01
   6.330160704558585E-01   6.321208763223592E-01   6.311253934971051E-01
   6.300280308189999E-01   6.288271943278411E-01   6.275212878596257E-01
   6.261087136604475E-01   6.245878730191844E-01   6.229571669191734E-01
   6.212149967090627E-01   6.193597647930168E-01   6.173898753404460E-01
   6.153037350154177E-01   6.130997537259001E-01   6.107763453929742E-01
   6.083319287401391E-01   6.057649281028261E-01   6.030737742582188E-01
   6.002569052754675E-01   5.973127673863675E-01   5.942398158765615E-01
   5.910365159973029E-01   5.877013438978084E-01   5.842327875782046E-01
   5.806293478630602E-01   5.768895393954726E-01   5.730118916516640E-01
   5.689949499760153E-01   5.648372766364517E-01   5.605374519000674E-01
   5.560940751288604E-01   5.515057658954172E-01   5.467711651183734E-01
   5.418889362174443E-01   5.368577662877980E-01   5.316763672935179E-01
   5.263434772798721E-01   5.208578616040872E-01   5.152183141842850E-01
   5.094236587662258E-01   5.034727502074591E-01   4.973644757784667E-01
   4.910977564803394E-01   4.846715483785097E-01   4.780848439520223E-01
   4.713366734577989E-01   4.644261063093170E-01   4.573522524690898E-01
   4.501142638543053E-01   4.427113357549414E-01   4.351427082636456E-01
   4.274076677166286E-01   4.195055481447883E-01   4.114357327342430E-01
   4.031976552954162E-01   3.947908017397783E-01   3.862147115633133E-01
   3.774689793357380E-01   3.685532561944651E-01   3.594672513422578E-01
   3.502107335474858E-01   3.407835326458482E-01   3.311855410423870E-01
   3.214167152125696E-01   3.114770772011745E-01   3.013667161176628E-01
   2.910857896266754E-01   2.806345254322385E-01   2.700132227542097E-01
   2.592222537954408E-01   2.482620651980756E-01   2.371331794873391E-01
   2.258361965011114E-01   2.143717948035128E-01   2.027407330806573E-01
   1.909438515166585E-01   1.789820731478967E-01   1.668564051934783E-01
   1.545679403597395E-01   1.421178581165618E-01   1.295074259431902E-01
   1.167380005411583E-01   1.038110290118503E-01   9.072804999615201E-02
   7.749069477357609E-02   6.410068831818866E-02   5.055985030861661E-02
   3.687009608938708E-02   2.303343758084009E-02   9.051984134873244E-03
  -5.072056666174337E-03  -1.933637827010811E-02  -3.373857447741851E-02
  -4.827613882808560E-02  -6.294646405473334E-02  -7.774684160393851E-02
  -9.267446122715972E-02  -1.077264106423538E-01  -1.228996752668913E-01
  -1.381911380218754E-01  -1.535975792074142E-01  -1.691156764478146E-01
  -1.847420047050634E-01  -2.004730363583646E-01  -2.163051413469381E-01
  -2.322345873727721E-01  -2.482575401596011E-01  -2.643700637640782E-01
  -2.805681209349597E-01  -2.968475735161478E-01  -3.132041828896755E-01
  -3.296336104551796E-01  -3.461314181431113E-01  -3.626930689598780E-01
  -3.793139275642941E-01  -3.959892608761229E-01  -4.127142387190831E-01
  -4.294839345024510E-01  -4.462933259472442E-01  -4.631372958648882E-01
  -4.800106329981667E-01  -4.969080329360762E-01  -5.138240991158637E-01
  -5.307533439269484E-01  -5.476901899325232E-01  -5.646289712253220E-01
  -5.815639349342434E-01  -5.984892428981794E-01  -6.153989735224504E-01
  -6.322871238316918E-01  -6.491476117308639E-01  -6.659742784833425E-01
  -6.827608914118745E-01  -6.995011468246928E-01  -7.161886731654568E-01
  -7.328170343821091E-01  -7.493797335064100E-01  -7.658702164330308E-01
  -7.822818758847918E-01  -7.986080555490379E-01  -8.148420543693060E-01
  -8.309771309763346E-01  -8.470065082430456E-01  -8.629233779492659E-01
  -8.787209055435291E-01  -8.943922349911227E-01  -9.099304936994980E-01
  -9.253287975140719E-01  -9.405802557792161E-01  -9.556779764607540E-01
  -9.706150713275229E-01  -9.853846611904629E-01  -9.999798811982783E-01
  -1.014393886188991E+00  -1.028619856096697E+00  -1.042651001412624E+00
  -1.056480568699118E+00  -1.070101846154693E+00  -1.083508169227557E+00
  -1.096692926274351E+00  -1.109649564260106E+00  -1.122371594494698E+00
  -1.134852598400384E+00  -1.147086233304401E+00  -1.159066238250010E+00
  -1.170786439818880E+00  -1.182240757957282E+00  -1.193423211798234E+00
  -1.204327925471429E+00  -1.214949133892621E+00  -1.225281188523970E+00
  -1.235318563096797E+00  -1.245055859288154E+00  -1.254487812342661E+00
  -1.263609296631087E+00  -1.272415331137296E+00  -1.280901084865237E+00
  -1.289061882157861E+00  -1.296893207919978E+00  -1.304390712737235E+00
  -1.311550217883612E+00  -1.318367720210009E+00  -1.324839396906698E+00
  -1.330961610132630E+00  -1.336730911504793E+00  -1.342144046441045E+00
  -1.347197958350035E+00  -1.351889792662082E+00  -1.356216900695077E+00
  -1.360176843349721E+00  -1.363767394628620E+00  -1.366986544974011E+00
  -1.369832504419111E+00  -1.372303705548329E+00  -1.374398806261812E+00
  -1.376116692340053E+00  -1.377456479804514E+00  -1.378417517070480E+00
  -1.378999386888607E+00  -1.379201908071859E+00  -1.379025137004806E+00
  -1.378469368932486E+00  -1.377535139026289E+00  -1.376223223224569E+00
  -1.374534638845937E+00  -1.372470644973438E+00  -1.370032742608037E+00
  -1.367222674590095E+00  -1.364042425287740E+00  -1.360494220051256E+00
  -1.356580524432850E+00  -1.352304043171339E+00  -1.347667718941548E+00
  -1.342674730868359E+00  -1.337328492805569E+00  -1.331632651379887E+00
  -1.325591083800562E+00  -1.319207895435296E+00  -1.312487417153252E+00
  -1.305434202436089E+00  -1.298053024258104E+00  -1.290348871736664E+00
  -1.282326946554224E+00  -1.273992659153338E+00  -1.265351624706146E+00
  -1.256409658859907E+00  -1.247172773260245E+00  -1.237647170853824E+00
  -1.227839240972271E+00  -1.217755554199196E+00  -1.207402857022287E+00
  -1.196788066272499E+00  -1.185918263352467E+00  -1.174800688256364E+00
  -1.163442733383580E+00  -1.151851937148706E+00  -1.140035977390510E+00
  -1.128002664582805E+00  -1.115759934850359E+00  -1.103315842793287E+00
  -1.090678554123770E+00  -1.077856338119316E+00  -1.064857559897336E+00
  -1.051690672516352E+00  -1.038364208909788E+00  -1.024886773659077E+00
  -1.011267034613738E+00  -9.975137143621247E-01  -9.836355815874498E-01
  -9.696414422677896E-01  -9.555401307859744E-01  -9.413405009348348E-01
  -9.270514168382599E-01  -9.126817438042680E-01  -8.982403391278052E-01
  -8.837360428625354E-01  -8.691776685824332E-01  -8.545739941555044E-01
  -8.399337525534275E-01  -8.252656227222883E-01  -8.105782205408488E-01
  -7.958800898939036E-01  -7.811796938892425E-01  -7.664854062474924E-01
  -7.518055028946639E-01  -7.371481537875612E-01  -7.225214150023157E-01
  -7.079332211161674E-01  -6.933913779122526E-01  -6.789035554365492E-01
  -6.644772814352669E-01  -6.501199351998254E-01  -6.358387418451018E-01
  -6.216407670447167E-01  -6.075329122446870E-01  -5.935219103735498E-01
  -5.796143220628009E-01  -5.658165323858172E-01  -5.521347481158744E-01
  -5.385749954938979E-01  -5.251431184835508E-01  -5.118447774745845E-01
  -4.986854483744727E-01  -4.856704220029046E-01  -4.728048036737714E-01
  -4.600935128155419E-01  -4.475412824449760E-01  -4.351526582738012E-01
  -4.229319971975092E-01  -4.108834648956666E-01  -3.990110322713025E-01
  -3.873184704811554E-01  -3.758093443667666E-01  -3.644870041946917E-01
  -3.533545757545875E-01  -3.424149490424602E-01  -3.316707659604973E-01
  -3.211244076731535E-01  -3.107779824420787E-01  -3.006333148862959E-01
  -2.906919376467582E-01  -2.809550863533241E-01  -2.714236985911422E-01
  -2.620984172575000E-01  -2.529795983257772E-01  -2.440673226426619E-01
  -2.353614110366093E-01  -2.268614417616593E-01  -2.185667691755687E-01
  -2.104765425646075E-01  -2.025897241639384E-01  -1.949051056471802E-01
  -1.874213226264388E-01  -1.801368669702638E-01  -1.730500969764324E-01
  -1.661592456078341E-01  -1.594624271061843E-01  -1.529576423445982E-01
  -1.466427832782942E-01  -1.405156368179208E-01  -1.345738883966156E-01
  -1.288151254417649E-01  -1.232368409039763E-01  -1.178364369440788E-01
  -1.126112288364218E-01  -1.075584491138244E-01  -1.026752519555100E-01
  -9.795871780293175E-02  -9.340585817803440E-02  -8.901362067274901E-02
  -8.477889407610965E-02  -8.069851360526591E-02  -7.676926620803690E-02
  -7.298789590690112E-02  -6.935110915700675E-02  -6.585558019361783E-02
  -6.249795634718391E-02  -5.927486330681057E-02  -5.618291031525077E-02
  -5.321869528060140E-02  -5.037880979167638E-02  -4.765984402555064E-02
  -4.505839153705736E-02  -4.257105392110389E-02  -4.019444533958460E-02
  -3.792519690544573E-02  -3.575996091712780E-02  -3.369541493720501E-02
  -3.172826570958098E-02  -2.985525291010697E-02  -2.807315272597847E-02
  -2.637878125974963E-02  -2.476899775429357E-02  -2.324070763553390E-02
  -2.179086537028311E-02  -2.041647713704790E-02  -1.911460330819929E-02
  -1.788236074245471E-02  -1.671692488717808E-02  -1.561553169056778E-02
  -1.457547932436848E-02  -1.359412971830634E-02  -1.266890990800446E-02
  -1.179731319868227E-02  -1.097690014747539E-02  -1.020529936772684E-02
  -9.480208159094450E-03  -8.799392967787787E-03  -8.160689681690550E-03
  -7.562003765536491E-03  -7.001310241688244E-03  -6.476653522416264E-03
  -5.986147099888375E-03  -5.527973100358258E-03  -5.100381709282716E-03
  -4.701690474302079E-03  -4.330283493186508E-03  -3.984610493982728E-03
  -3.663185814689609E-03  -3.364587289851678E-03  -3.087455051485669E-03
  -2.830490251746325E-03  -2.592453714697498E-03  -2.372164524484395E-03
  -2.168498557103473E-03  -1.980386962840140E-03  -1.806814606293072E-03
  -1.646818470729467E-03  -1.499486033320050E-03  -1.363953617588109E-03
  -1.239404729175359E-03  -1.125068380781052E-03  -1.020217411871421E-03
  -9.241668084862113E-04  -8.362720281896686E-04  -7.559273349264793E-04
  -6.825641482507610E-04  -6.156494110998067E-04  -5.546839799853085E-04
  -4.992010411747940E-04  -4.487645561364278E-04  -4.029677392223888E-04
  -3.614315702709702E-04  -3.238033445165703E-04  -2.897552619109785E-04
  -2.589830576798447E-04  -2.312046756659915E-04  -2.061589857472070E-04
  -1.836045463612563E-04  -1.633184129258781E-04  -1.450949927072532E-04
  -1.287449464675259E-04  -1.140941370110212E-04  -1.009826245503530E-04
  -8.926370862808173E-05  -7.880301615729143E-05  -6.947763498564391E-05
  -6.117529224227902E-05  -5.379357659539963E-05  -4.723920343045649E-05
  -4.142732185438252E-05  -3.628086234008298E-05  -3.172992374704904E-05
  -2.771119838812897E-05  -2.416743375870107E-05  -2.104692950221676E-05
  -1.830306815474122E-05  -1.589387819008865E-05  -1.378162787576891E-05
  -1.193244844754481E-05  -1.031598511623910E-05  -8.905074433811169E-06
  -7.675446565926016E-06  -6.605451044548962E-06  -5.675804605813785E-06
  -4.869359754843872E-06  -4.170892739690105E-06  -3.566909660447394E-06
  -3.045469486315773E-06  -2.596022802307056E-06  -2.209265157924799E-06
  -1.877003941962237E-06  -1.592037760106737E-06  -1.348047344886301E-06
  -1.139497080259355E-06  -9.615462754879302E-07  -8.099693745392352E-07
  -6.810843378615760E-07  -5.716884827434471E-07  -4.790011163895202E-07
  -4.006123421667208E-07  -3.344374640506464E-07  -2.786764570287390E-07
  -2.317780120096509E-07  -1.924077025901625E-07  -1.594198578057662E-07
  -1.318327597225010E-07  -1.088068174173694E-07  -8.962539955993460E-08
  -7.367803647936687E-08  -6.044572932182889E-08  -4.948812872499378E-08
  -4.043236841992670E-08  -3.296336038191538E-08  -2.681537766183861E-08
  -2.176476891173050E-08  -1.762366494608235E-08  -1.423455253008259E-08
  -1.146560401016370E-08  -9.206663575706067E-09  -7.365801212196943E-09
  -5.866358458507283E-09  -4.644397498741448E-09  -3.646585361138342E-09
  -2.828039837746427E-09  -2.154629176037623E-09  -1.577511518496868E-09
   0.000000000000000E+00   0.000000000000000E+00   0.000000000000000E+00
   0.000000000000000E+00   0.000000000000000E+00   0.000000000000000E+00
   0.000000000000000E+00   0.000000000000000E+00   0.000000000000000E+00
   0.000000000000000E+00   0.000000000000000E+00   0.000000000000000E+00
   0.000000000000000E+00   0.000000000000000E+00   0.000000000000000E+00
   0.000000000000000E+00   0.000000000000000E+00   0.000000000000000E+00
   0.000000000000000E+00   0.000000000000000E+00   0.000000000000000E+00
   0.000000000000000E+00   0.000000000000000E+00   0.000000000000000E+00
   0.000000000000000E+00   0.000000000000000E+00   0.000000000000000E+00
   0.000000000000000E+00   0.000000000000000E+00   0.000000000000000E+00
   0.000000000000000E+00   0.000000000000000E+00   0.000000000000000E+00
   0.000000000000000E+00   0.000000000000000E+00   0.000000000000000E+00
   0.000000000000000E+00   0.000000000000000E+00   0.000000000000000E+00
   0.000000000000000E+00   0.000000000000000E+00   0.000000000000000E+00
   0.000000000000000E+00   0.000000000000000E+00   0.000000000000000E+00
   0.000000000000000E+00   0.000000000000000E+00   0.000000000000000E+00
   0.000000000000000E+00   0.000000000000000E+00   0.000000000000000E+00
   0.000000000000000E+00   0.000000000000000E+00   0.000000000000000E+00
   0.000000000000000E+00   0.000000000000000E+00   0.000000000000000E+00
   0.000000000000000E+00   0.000000000000000E+00   0.000000000000000E+00
   0.000000000000000E+00   0.000000000000000E+00   0.000000000000000E+00
   0.000000000000000E+00   0.000000000000000E+00   0.000000000000000E+00
   0.000000000000000E+00   0.000000000000000E+00   0.000000000000000E+00
   0.000000000000000E+00   0.000000000000000E+00   0.000000000000000E+00
   0.000000000000000E+00   0.000000000000000E+00   0.000000000000000E+00
   0.000000000000000E+00   0.000000000000000E+00   0.000000000000000E+00
   0.000000000000000E+00   0.000000000000000E+00   0.000000000000000E+00
   0.000000000000000E+00   0.000000000000000E+00   0.000000000000000E+00
   0.000000000000000E+00   0.000000000000000E+00   0.000000000000000E+00
   0.000000000000000E+00   0.000000000000000E+00   0.000000000000000E+00
   0.000000000000000E+00   0.000000000000000E+00   0.000000000000000E+00
   0.000000000000000E+00   0.000000000000000E+00   0.000000000000000E+00
   0.000000000000000E+00   0.000000000000000E+00   0.000000000000000E+00
   0.000000000000000E+00   0.000000000000000E+00   0.000000000000000E+00
   0.000000000000000E+00   0.000000000000000E+00   0.000000000000000E+00
   0.000000000000000E+00   0.000000000000000E+00   0.000000000000000E+00
   0.000000000000000E+00   0.000000000000000E+00   0.000000000000000E+00
   0.000000000000000E+00   0.000000000000000E+00   0.000000000000000E+00
   0.000000000000000E+00   0.000000000000000E+00   0.000000000000000E+00
   0.000000000000000E+00   0.000000000000000E+00   0.000000000000000E+00
   0.000000000000000E+00   0.000000000000000E+00   0.000000000000000E+00
   0.000000000000000E+00   0.000000000000000E+00   0.000000000000000E+00
   0.000000000000000E+00   0.000000000000000E+00   0.000000000000000E+00
   0.000000000000000E+00   0.000000000000000E+00   0.000000000000000E+00
   0.000000000000000E+00   0.000000000000000E+00   0.000000000000000E+00
   0.000000000000000E+00   0.000000000000000E+00   0.000000000000000E+00
   0.000000000000000E+00   0.000000000000000E+00   0.000000000000000E+00
   0.000000000000000E+00   0.000000000000000E+00   0.000000000000000E+00
   0.000000000000000E+00   0.000000000000000E+00   0.000000000000000E+00
   0.000000000000000E+00   0.000000000000000E+00   0.000000000000000E+00
   0.000000000000000E+00   0.000000000000000E+00   0.000000000000000E+00
   0.000000000000000E+00   0.000000000000000E+00   0.000000000000000E+00
   0.000000000000000E+00   0.000000000000000E+00   0.000000000000000E+00
   0.000000000000000E+00   0.000000000000000E+00   0.000000000000000E+00
   0.000000000000000E+00   0.000000000000000E+00   0.000000000000000E+00
   0.000000000000000E+00   0.000000000000000E+00   0.000000000000000E+00
   0.000000000000000E+00   0.000000000000000E+00   0.000000000000000E+00
   0.000000000000000E+00   0.000000000000000E+00   0.000000000000000E+00
   0.000000000000000E+00   0.000000000000000E+00   0.000000000000000E+00
   0.000000000000000E+00   0.000000000000000E+00   0.000000000000000E+00
   0.000000000000000E+00   0.000000000000000E+00   0.000000000000000E+00
   0.000000000000000E+00   0.000000000000000E+00   0.000000000000000E+00
   0.000000000000000E+00   0.000000000000000E+00   0.000000000000000E+00
   0.000000000000000E+00   0.000000000000000E+00   0.000000000000000E+00
   0.000000000000000E+00   0.000000000000000E+00   0.000000000000000E+00
   0.000000000000000E+00   0.000000000000000E+00   0.000000000000000E+00
   0.000000000000000E+00   0.000000000000000E+00   0.000000000000000E+00
   0.000000000000000E+00   0.000000000000000E+00   0.000000000000000E+00
   0.000000000000000E+00   0.000000000000000E+00   0.000000000000000E+00
   0.000000000000000E+00   0.000000000000000E+00   0.000000000000000E+00
   0.000000000000000E+00   0.000000000000000E+00   0.000000000000000E+00
   0.000000000000000E+00   0.000000000000000E+00   0.000000000000000E+00
   0.000000000000000E+00   0.000000000000000E+00   0.000000000000000E+00
   0.000000000000000E+00   0.000000000000000E+00   0.000000000000000E+00
   0.000000000000000E+00   0.000000000000000E+00   0.000000000000000E+00
   0.000000000000000E+00   0.000000000000000E+00   0.000000000000000E+00
   0.000000000000000E+00   0.000000000000000E+00   0.000000000000000E+00
   0.000000000000000E+00   0.000000000000000E+00   0.000000000000000E+00
   0.000000000000000E+00   0.000000000000000E+00   0.000000000000000E+00
   0.000000000000000E+00   0.000000000000000E+00   0.000000000000000E+00
   0.000000000000000E+00   0.000000000000000E+00   0.000000000000000E+00
   0.000000000000000E+00   0.000000000000000E+00   0.000000000000000E+00
   0.000000000000000E+00   0.000000000000000E+00   0.000000000000000E+00
   0.000000000000000E+00   0.000000000000000E+00   0.000000000000000E+00
   0.000000000000000E+00   0.000000000000000E+00   0.000000000000000E+00
   0.000000000000000E+00   0.000000000000000E+00   0.000000000000000E+00
   0.000000000000000E+00   0.000000000000000E+00   0.000000000000000E+00
   0.000000000000000E+00
      </PP_GIPAW_CORE_ORBITAL.2>
      <PP_GIPAW_CORE_ORBITAL.3 size="1525" index="3" label="2P" n="2.00000000000000" l="1.00000000000000">
   1.279713844288635E-07   1.301175793952859E-07   1.322997679774253E-07
   1.345185538205203E-07   1.367759011888935E-07   1.390753112734917E-07
   1.414167503254452E-07   1.438010836870253E-07   1.462290428034106E-07
   1.487013726530919E-07   1.512188319758519E-07   1.537821935192881E-07
   1.563922442822841E-07   1.590497857644345E-07   1.617556342200682E-07
   1.645106209170612E-07   1.673155924005206E-07   1.701714107614309E-07
   1.730789539103506E-07   1.760391158562530E-07   1.790528069906033E-07
   1.821209543767695E-07   1.852445020448624E-07   1.884244112921067E-07
   1.916616609888415E-07   1.949572478902567E-07   1.983121869539675E-07
   2.017275116635369E-07   2.052042743580535E-07   2.087435465678780E-07
   2.123464193566701E-07   2.160140036698138E-07   2.197474306893569E-07
   2.235478521839535E-07   2.274164409605282E-07   2.313543914331244E-07
   2.353629191620171E-07   2.394432609012660E-07   2.435966779759937E-07
   2.478244537067829E-07   2.521278902317820E-07   2.565083182678232E-07
   2.609670968086084E-07   2.655056047334531E-07   2.701252441367870E-07
   2.748274433397730E-07   2.796136611707188E-07   2.844853858418981E-07
   2.894441220993929E-07   2.944914000762947E-07   2.996287890350050E-07
   3.048578828257715E-07   3.101803039543365E-07   3.155977086447734E-07
   3.211117700099745E-07   3.267241969454115E-07   3.324367381618157E-07
   3.382511676372871E-07   3.441692911978829E-07   3.501929462951728E-07
   3.563240066207497E-07   3.625643815123310E-07   3.689160128273564E-07
   3.753808761187955E-07   3.819609808968486E-07   3.886583701828218E-07
   3.954751332676496E-07   4.024133990685103E-07   4.094753277394464E-07
   4.166631232517496E-07   4.239790279519145E-07   4.314253183143083E-07
   4.390043152533638E-07   4.467183916395691E-07   4.545699593685039E-07
   4.625614681900591E-07   4.706954111499490E-07   4.789743359822133E-07
   4.874008383769147E-07   4.959775435864125E-07   5.047071312065189E-07
   5.135923460341242E-07   5.226359730783218E-07   5.318408364519870E-07
   5.412098175313899E-07   5.507458536911327E-07   5.604519451956465E-07
   5.703311464297821E-07   5.803865499616714E-07   5.906213025121011E-07
   6.010386164900970E-07   6.116417688893798E-07   6.224340954801942E-07
   6.334189859198093E-07   6.445998957196361E-07   6.559803569056185E-07
   6.675639532558860E-07   6.793543250096367E-07   6.913551795854926E-07
   7.035702990268999E-07   7.160035374487540E-07   7.286588142318985E-07
   7.415401278511020E-07   7.546515542536782E-07   7.679972292150047E-07
   7.815813603244523E-07   7.954082482113050E-07   8.094822638785898E-07
   8.238078563923916E-07   8.383895577372908E-07   8.532319849209382E-07
   8.683398517003679E-07   8.837179456911235E-07   8.993711316662757E-07
   9.153043720272124E-07   9.315227267962957E-07   9.480313549958752E-07
   9.648354909138908E-07   9.819404675180996E-07   9.993517353998127E-07
   1.017074834034215E-06   1.035115394732178E-06   1.053479159173018E-06
   1.072171978040532E-06   1.091199799364211E-06   1.110568685304539E-06
   1.130284832373424E-06   1.150354546552545E-06   1.170784229531071E-06
   1.191580399799279E-06   1.212749690138809E-06   1.234298862503526E-06
   1.256234820758962E-06   1.278564591980717E-06   1.301295325177190E-06
   1.324434302539592E-06   1.347988936565796E-06   1.371966784229743E-06
   1.396375560079245E-06   1.421223102349335E-06   1.446517380733357E-06
   1.472266520722672E-06   1.498478795609045E-06   1.525162637054201E-06
   1.552326645813361E-06   1.579979575993716E-06   1.608130335771202E-06
   1.636788005611609E-06   1.665961835147615E-06   1.695661243467794E-06
   1.725895816980437E-06   1.756675328897745E-06   1.788009737359134E-06
   1.819909185099268E-06   1.852384004807252E-06   1.885444706704205E-06
   1.919102004160938E-06   1.953366816181213E-06   1.988250251858490E-06
   2.023763632551840E-06   2.059918512641028E-06   2.096726656619329E-06
   2.134200039938960E-06   2.172350857917627E-06   2.211191524761997E-06
   2.250734698992076E-06   2.290993276175781E-06   2.331980385570425E-06
   2.373709409905939E-06   2.416193995255890E-06   2.459448022912705E-06
   2.503485632921679E-06   2.548321248003068E-06   2.593969551816485E-06
   2.640445503247023E-06   2.687764347306613E-06   2.735941616982632E-06
   2.784993127330312E-06   2.834934980506255E-06   2.885783592066067E-06
   2.937555700955160E-06   2.990268352211080E-06   3.043938905905763E-06
   3.098585053133103E-06   3.154224819036884E-06   3.210876571590348E-06
   3.268559017572293E-06   3.327291217671064E-06   3.387092596860300E-06
   3.447982943363518E-06   3.509982418024425E-06   3.573111565965362E-06
   3.637391326497837E-06   3.702843024293038E-06   3.769488387316065E-06
   3.837349561270492E-06   3.906449107042700E-06   3.976810013859159E-06
   4.048455706398512E-06   4.121410053823319E-06   4.195697377332790E-06
   4.271342459085433E-06   4.348370551506504E-06   4.426807384785273E-06
   4.506679176854962E-06   4.588012647226086E-06   4.670835024886007E-06
   4.755174053178851E-06   4.841058002075428E-06   4.928515678131835E-06
   5.017576437047471E-06   5.108270198664115E-06   5.200627447749521E-06
   5.294679247994230E-06   5.390457258918966E-06   5.487993744226105E-06
   5.587321582633983E-06   5.688474273419629E-06   5.791485957907241E-06
   5.896391433023895E-06   6.003226160361251E-06   6.112026279084543E-06
   6.222828611548952E-06   6.335670687156392E-06   6.450590756710951E-06
   6.567627799926653E-06   6.686821543712831E-06   6.808212474020119E-06
   6.931841845186589E-06   7.057751704192870E-06   7.185984922651836E-06
   7.316585184246598E-06   7.449596993799413E-06   7.585065717899655E-06
   7.723037609114982E-06   7.863559804280569E-06   8.006680335423290E-06
   8.152448169109423E-06   8.300913209421725E-06   8.452126299780524E-06
   8.606139271779883E-06   8.763004972466216E-06   8.922777254885915E-06
   9.085510988308224E-06   9.251262108445708E-06   9.420087640202568E-06
   9.592045697800537E-06   9.767195518606473E-06   9.945597481151786E-06
   1.012731312822903E-05   1.031240518962907E-05   1.050093760539180E-05
   1.069297554953382E-05   1.088858545426231E-05   1.108783503463511E-05
   1.129079331371522E-05   1.149753064881380E-05   1.170811875437462E-05
   1.192263071622086E-05   1.214114103957632E-05   1.236372571000511E-05
   1.259046215079511E-05   1.282142926177707E-05   1.305670752142669E-05
   1.329637896172956E-05   1.354052719587667E-05   1.378923745711287E-05
   1.404259659423419E-05   1.430069317470075E-05   1.456361749867446E-05
   1.483146155615102E-05   1.510431914962617E-05   1.538228592478362E-05
   1.566545936593431E-05   1.595393885701153E-05   1.624782571105147E-05
   1.654722320960484E-05   1.685223664127642E-05   1.716297334127814E-05
   1.747954273175825E-05   1.780205636286833E-05   1.813062795467611E-05
   1.846537343991123E-05   1.880641100754671E-05   1.915386114725064E-05
   1.950784669471611E-05   1.986849287788977E-05   2.023592736411612E-05
   2.061028030821555E-05   2.099168440151489E-05   2.138027492184894E-05
   2.177618978455264E-05   2.217956959446375E-05   2.259055769895161E-05
   2.300930024197944E-05   2.343594621923821E-05   2.387064753442182E-05
   2.431355905661529E-05   2.476483867977438E-05   2.522464737641672E-05
   2.569314923659771E-05   2.617051156355825E-05   2.665690498375795E-05
   2.715250341724411E-05   2.765748420572152E-05   2.817202822013566E-05
   2.869631981047035E-05   2.923054689453781E-05   2.977490109524429E-05
   3.032957774099594E-05   3.089477599183409E-05   3.147069895761466E-05
   3.205755369003012E-05   3.265555130622660E-05   3.326490705495052E-05
   3.388584040067204E-05   3.451857510668005E-05   3.516333931988319E-05
   3.582036565735611E-05   3.648989129462713E-05   3.717215805566224E-05
   3.786741250465362E-05   3.857590603961216E-05   3.929789498781073E-05
   4.003364070311224E-05   4.078340966521965E-05   4.154747358088571E-05
   4.232610948712077E-05   4.311959985643795E-05   4.392823270417550E-05
   4.475230169793712E-05   4.559210626919174E-05   4.644795172707495E-05
   4.732014937443537E-05   4.820901662616974E-05   4.911487712989164E-05
   5.003806088897940E-05   5.097890438804984E-05   5.193775072090519E-05
   5.291494972100158E-05   5.391085809448834E-05   5.492583955586843E-05
   5.596026496633104E-05   5.701451247480867E-05   5.808896766181181E-05
   5.918402368609549E-05   6.030008143421280E-05   6.143754967301190E-05
   6.259684520513359E-05   6.377839302756831E-05   6.498262649333174E-05
   6.620998747632021E-05   6.746092653940739E-05   6.873590310584571E-05
   7.003538563403645E-05   7.135985179573448E-05   7.270978865775396E-05
   7.408569286724325E-05   7.548807084059865E-05   7.691743895608696E-05
   7.837432375024965E-05   7.985926211816156E-05   8.137280151761899E-05
   8.291550017733336E-05   8.448792730920832E-05   8.609066332478124E-05
   8.772430005589809E-05   8.938944097966233E-05   9.108670144776739E-05
   9.281670892221210E-05   9.458010320460367E-05   9.637753663648986E-05
   9.820967438475698E-05   1.000771948249389E-04   1.019807897501534E-04
   1.039211645687632E-04   1.058990384068668E-04   1.079151444448243E-04
   1.099702304463894E-04   1.120650588974633E-04   1.142004072549712E-04
   1.163770682908355E-04   1.185958503742583E-04   1.208575777817442E-04
   1.231630910096579E-04   1.255132470930558E-04   1.279089199307036E-04
   1.303510006164831E-04   1.328403977772327E-04   1.353780379171759E-04
   1.379648657690568E-04   1.406018446521126E-04   1.432899568370138E-04
   1.460302039179043E-04   1.488236071916791E-04   1.516712080446359E-04
   1.545740683466437E-04   1.575332708529693E-04   1.605499196139103E-04
   1.636251403923814E-04   1.667600810896076E-04   1.699559121790761E-04
   1.732138271489074E-04   1.765350429528028E-04   1.799208004697332E-04
   1.833723649725341E-04   1.868910266055773E-04   1.904781008716897E-04
   1.941349291284973E-04   1.978628790943692E-04   2.016633453641476E-04
   2.055377499348456E-04   2.094875427415041E-04   2.135142022033970E-04
   2.176192357807835E-04   2.218041805424029E-04   2.260706037439181E-04
   2.304201034175116E-04   2.348543089728455E-04   2.393748818095982E-04
   2.439835159417974E-04   2.486819386341689E-04   2.534719110507290E-04
   2.583552289158477E-04   2.633337231880198E-04   2.684092607465795E-04
   2.735837450916016E-04   2.788591170572353E-04   2.842373555387243E-04
   2.897204782333653E-04   2.953105423956672E-04   3.010096456069748E-04
   3.068199265598276E-04   3.127435658573270E-04   3.187827868277906E-04
   3.249398563549795E-04   3.312170857241852E-04   3.376168314844727E-04
   3.441414963273778E-04   3.507935299823621E-04   3.575754301293394E-04
   3.644897433285844E-04   3.715390659683479E-04   3.787260452305034E-04
   3.860533800745576E-04   3.935238222403632E-04   4.011401772698777E-04
   4.089053055483174E-04   4.168221233650631E-04   4.248936039946798E-04
   4.331227787984176E-04   4.415127383465691E-04   4.500666335620651E-04
   4.587876768856935E-04   4.676791434633391E-04   4.767443723556422E-04
   4.859867677704855E-04   4.954098003187234E-04   5.050170082935750E-04
   5.148119989741097E-04   5.247984499532628E-04   5.349801104908221E-04
   5.453608028918385E-04   5.559444239109173E-04   5.667349461828575E-04
   5.777364196801124E-04   5.889529731975528E-04   6.003888158650240E-04
   6.120482386881914E-04   6.239356161181842E-04   6.360554076505493E-04
   6.484121594540395E-04   6.610105060297646E-04   6.738551719012503E-04
   6.869509733359483E-04   7.003028200987597E-04   7.139157172381358E-04
   7.277947669053321E-04   7.419451702074032E-04   7.563722290945302E-04
   7.710813482822865E-04   7.860780372094540E-04   8.013679120320152E-04
   8.169566976539530E-04   8.328502297955011E-04   8.490544570995000E-04
   8.655754432765200E-04   8.824193692894284E-04   8.995925355780804E-04
   9.171013643248342E-04   9.349524017615916E-04   9.531523205190842E-04
   9.717079220191293E-04   9.906261389105975E-04   1.009914037549839E-03
   1.029578820526333E-03   1.049627829234328E-03   1.070068546491265E-03
   1.090908599203767E-03   1.112155761082021E-03   1.133817955403352E-03
   1.155903257825836E-03   1.178419899252789E-03   1.201376268748987E-03
   1.224780916509493E-03   1.248642556881965E-03   1.272970071443341E-03
   1.297772512131805E-03   1.323059104434966E-03   1.348839250635162E-03
   1.375122533112850E-03   1.401918717709037E-03   1.429237757147719E-03
   1.457089794519321E-03   1.485485166826132E-03   1.514434408590747E-03
   1.543948255528544E-03   1.574037648285233E-03   1.604713736240540E-03
   1.635987881379076E-03   1.667871662229493E-03   1.700376877873002E-03
   1.733515552022385E-03   1.767299937172602E-03   1.801742518824152E-03
   1.836856019780320E-03   1.872653404519503E-03   1.909147883643767E-03
   1.946352918404853E-03   1.984282225308833E-03   2.022949780800644E-03
   2.062369826029736E-03   2.102556871698089E-03   2.143525702991874E-03
   2.185291384598032E-03   2.227869265807076E-03   2.271274985703418E-03
   2.315524478444570E-03   2.360633978630533E-03   2.406620026764748E-03
   2.453499474807978E-03   2.501289491826498E-03   2.550007569736003E-03
   2.599671529142633E-03   2.650299525282562E-03   2.701910054061580E-03
   2.754521958196117E-03   2.808154433457207E-03   2.862827035018834E-03
   2.918559683912204E-03   2.975372673587409E-03   3.033286676584040E-03
   3.092322751312268E-03   3.152502348945951E-03   3.213847320429324E-03
   3.276379923598848E-03   3.340122830421811E-03   3.405099134353273E-03
   3.471332357812966E-03   3.538846459783777E-03   3.607665843533436E-03
   3.677815364461069E-03   3.749320338070254E-03   3.822206548070249E-03
   3.896500254607073E-03   3.972228202626107E-03   4.049417630367928E-03
   4.128096277999045E-03   4.208292396379285E-03   4.290034755967494E-03
   4.373352655867321E-03   4.458275933014774E-03   4.544834971509313E-03
   4.633060712090185E-03   4.722984661759768E-03   4.814638903555656E-03
   4.908056106473236E-03   5.003269535540498E-03   5.100313062046849E-03
   5.199221173927661E-03   5.300028986306308E-03   5.402772252195453E-03
   5.507487373359312E-03   5.614211411338665E-03   5.722982098640317E-03
   5.833837850092782E-03   5.946817774369883E-03   6.061961685684017E-03
   6.179310115650764E-03   6.298904325326578E-03   6.420786317421216E-03
   6.544998848686596E-03   6.671585442483760E-03   6.800590401529560E-03
   6.932058820824725E-03   7.066036600764901E-03   7.202570460436281E-03
   7.341707951097363E-03   7.483497469848412E-03   7.627988273490135E-03
   7.775230492573059E-03   7.925275145639104E-03   8.078174153656748E-03
   8.233980354651222E-03   8.392747518531092E-03   8.554530362112548E-03
   8.719384564342710E-03   8.887366781723190E-03   9.058534663935133E-03
   9.232946869666862E-03   9.410663082645303E-03   9.591744027872176E-03
   9.776251488066021E-03   9.964248320310971E-03   1.015579847291319E-02
   1.035096700246578E-02   1.054982009112295E-02   1.075242506408410E-02
   1.095885040728847E-02   1.116916578532096E-02   1.138344205952944E-02
   1.160175130635407E-02   1.182416683586894E-02   1.205076321053611E-02
   1.228161626417231E-02   1.251680312112829E-02   1.275640221568066E-02
   1.300049331163618E-02   1.324915752214808E-02   1.350247732974410E-02
   1.376053660656568E-02   1.402342063481767E-02   1.429121612742782E-02
   1.456401124891503E-02   1.484189563646559E-02   1.512496042121588E-02
   1.541329824974044E-02   1.570700330574399E-02   1.600617133195544E-02
   1.631089965222252E-02   1.662128719380469E-02   1.693743450986246E-02
   1.725944380214064E-02   1.758741894384311E-02   1.792146550269629E-02
   1.826169076419864E-02   1.860820375505279E-02   1.896111526677728E-02
   1.932053787949413E-02   1.968658598588868E-02   2.005937581533761E-02
   2.043902545820088E-02   2.082565489027323E-02   2.121938599739040E-02
   2.162034260018514E-02   2.202865047898774E-02   2.244443739886548E-02
   2.286783313479530E-02   2.329896949696340E-02   2.373798035618552E-02
   2.418500166944101E-02   2.464017150551377E-02   2.510363007073257E-02
   2.557551973480304E-02   2.605598505672338E-02   2.654517281077518E-02
   2.704323201258066E-02   2.755031394521719E-02   2.806657218537944E-02
   2.859216262957930E-02   2.912724352037309E-02   2.967197547260548E-02
   3.022652149965869E-02   3.079104703969551E-02   3.136571998188396E-02
   3.195071069259107E-02   3.254619204153279E-02   3.315233942786638E-02
   3.376933080621165E-02   3.439734671258600E-02   3.503657029023887E-02
   3.568718731536952E-02   3.634938622271240E-02   3.702335813097337E-02
   3.770929686809956E-02   3.840739899636508E-02   3.911786383725432E-02
   3.984089349612385E-02   4.057669288662317E-02   4.132546975485443E-02
   4.208743470325003E-02   4.286280121414674E-02   4.365178567303412E-02
   4.445460739145448E-02   4.527148862953083E-02   4.610265461809857E-02
   4.694833358041611E-02   4.780875675342857E-02   4.868415840855839E-02
   4.957477587199546E-02   5.048084954445901E-02   5.140262292040260E-02
   5.234034260663244E-02   5.329425834030913E-02   5.426462300630141E-02
   5.525169265386012E-02   5.625572651257949E-02   5.727698700761228E-02
   5.831573977410401E-02   5.937225367081117E-02   6.044680079286693E-02
   6.153965648365724E-02   6.265109934576932E-02   6.378141125097329E-02
   6.493087734919724E-02   6.609978607645470E-02   6.728842916168271E-02
   6.849710163244756E-02   6.972610181947467E-02   7.097573135995748E-02
   7.224629519959984E-02   7.353810159334505E-02   7.485146210474372E-02
   7.618669160391171E-02   7.754410826402837E-02   7.892403355632403E-02
   8.032679224350527E-02   8.175271237156451E-02   8.320212525992038E-02
   8.467536548983380E-02   8.617277089104357E-02   8.769468252656437E-02
   8.924144467558931E-02   9.081340481443750E-02   9.241091359548652E-02
   9.403432482402863E-02   9.568399543298810E-02   9.736028545543669E-02
   9.906355799484252E-02   1.007941791929871E-01   1.025525181954839E-01
   1.043389471148317E-01   1.061538409909330E-01   1.079975777490095E-01
   1.098705381548433E-01   1.117731057672726E-01   1.137056668878704E-01
   1.156686105077319E-01   1.176623282512975E-01   1.196872143171358E-01
   1.217436654156111E-01   1.238320807033587E-01   1.259528617144908E-01
   1.281064122884548E-01   1.302931384944645E-01   1.325134485524257E-01
   1.347677527502755E-01   1.370564633576536E-01   1.393799945358260E-01
   1.417387622437780E-01   1.441331841403937E-01   1.465636794826405E-01
   1.490306690196745E-01   1.515345748827840E-01   1.540758204710858E-01
   1.566548303328932E-01   1.592720300426691E-01   1.619278460734807E-01
   1.646227056648733E-01   1.673570366860770E-01   1.701312674944648E-01
   1.729458267891763E-01   1.758011434598260E-01   1.786976464302125E-01
   1.816357644969463E-01   1.846159261629152E-01   1.876385594655069E-01
   1.907040917995080E-01   1.938129497346014E-01   1.969655588273836E-01
   2.001623434278261E-01   2.034037264801050E-01   2.066901293177257E-01
   2.100219714528693E-01   2.133996703598918E-01   2.168236412529066E-01
   2.202942968573838E-01   2.238120471757022E-01   2.273772992465918E-01
   2.309904568984072E-01   2.346519204961753E-01   2.383620866823627E-01
   2.421213481113126E-01   2.459300931773016E-01   2.497887057361739E-01
   2.536975648205105E-01   2.576570443482960E-01   2.616675128250505E-01
   2.657293330393961E-01   2.698428617520342E-01   2.740084493781117E-01
   2.782264396629612E-01   2.824971693512042E-01   2.868209678492105E-01
   2.911981568809144E-01   2.956290501369924E-01   3.001139529174122E-01
   3.046531617673707E-01   3.092469641066448E-01   3.138956378523805E-01
   3.185994510353614E-01   3.233586614097944E-01   3.281735160566663E-01
   3.330442509807255E-01   3.379710907011548E-01   3.429542478360072E-01
   3.479939226804851E-01   3.530903027791515E-01   3.582435624921688E-01
   3.634538625556731E-01   3.687213496363963E-01   3.740461558806604E-01
   3.794283984578773E-01   3.848681790986968E-01   3.903655836279543E-01
   3.959206814925832E-01   4.015335252846634E-01   4.072041502597910E-01
   4.129325738509650E-01   4.187187951781975E-01   4.245627945540662E-01
   4.304645329854409E-01   4.364239516716279E-01   4.424409714991894E-01
   4.485154925337089E-01   4.546473935087893E-01   4.608365313125822E-01
   4.670827404721670E-01   4.733858326361103E-01   4.797455960555582E-01
   4.861617950642278E-01   4.926341695576867E-01   4.991624344723286E-01
   5.057462792644746E-01   5.123853673900522E-01   5.190793357853306E-01
   5.258277943492121E-01   5.326303254276133E-01   5.394864833004920E-01
   5.463957936721111E-01   5.533577531651634E-01   5.603718288194121E-01
   5.674374575955426E-01   5.745540458849571E-01   5.817209690262835E-01
   5.889375708294143E-01   5.962031631079310E-01   6.035170252208162E-01
   6.108784036244015E-01   6.182865114355416E-01   6.257405280070525E-01
   6.332395985164944E-01   6.407828335694206E-01   6.483693088182504E-01
   6.559980645979566E-01   6.636681055797827E-01   6.713784004442178E-01
   6.791278815744625E-01   6.869154447716056E-01   6.947399489927014E-01
   7.026002161128840E-01   7.104950307125815E-01   7.184231398907793E-01
   7.263832531051511E-01   7.343740420396877E-01   7.423941405002393E-01
   7.504421443381197E-01   7.585166114016182E-01   7.666160615148956E-01
   7.747389764833337E-01   7.828838001239613E-01   7.910489383190756E-01
   7.992327590906564E-01   8.074335926926165E-01   8.156497317173753E-01
   8.238794312126904E-01   8.321209088041713E-01   8.403723448184413E-01
   8.486318824015394E-01   8.568976276269082E-01   8.651676495872029E-01
   8.734399804642365E-01   8.817126155716558E-01   8.899835133654523E-01
   8.982505954181768E-01   9.065117463537300E-01   9.147648137408774E-01
   9.230076079451330E-01   9.312379019403857E-01   9.394534310835397E-01
   9.476518928574822E-01   9.558309465898063E-01   9.639882131568571E-01
   9.721212746847600E-01   9.802276742610555E-01   9.883049156723582E-01
   9.963504631849648E-01   1.004361741386528E+00   1.012336135107686E+00
   1.020270989442848E+00   1.028163609889084E+00   1.036011262621263E+00
   1.043811174920106E+00   1.051560535767719E+00   1.059256496622433E+00
   1.066896172381428E+00   1.074476642535810E+00   1.081994952518597E+00
   1.089448115241730E+00   1.096833112813882E+00   1.104146898426774E+00
   1.111386398394187E+00   1.118548514324950E+00   1.125630125409298E+00
   1.132628090796904E+00   1.139539252044986E+00   1.146360435615772E+00
   1.153088455404461E+00   1.159720115281228E+00   1.166252211633766E+00
   1.172681535899981E+00   1.179004877083648E+00   1.185219024248797E+00
   1.191320768991336E+00   1.197306907888636E+00   1.203174244929600E+00
   1.208919593929044E+00   1.214539780930966E+00   1.220031646605699E+00
   1.225392048645850E+00   1.230617864165673E+00   1.235705992107877E+00
   1.240653355661202E+00   1.245456904691207E+00   1.250113618185858E+00
   1.254620506716621E+00   1.258974614914881E+00   1.263173023962777E+00
   1.267212854096782E+00   1.271091267121769E+00   1.274805468932793E+00
   1.278352712041376E+00   1.281730298102777E+00   1.284935580440469E+00
   1.287965966563921E+00   1.290818920675653E+00   1.293491966163536E+00
   1.295982688074325E+00   1.298288735564483E+00   1.300407824324436E+00
   1.302337738972564E+00   1.304076335415328E+00   1.305621543170125E+00
   1.306971367647619E+00   1.308123892390438E+00   1.309077281265328E+00
   1.309829780605994E+00   1.310379721304014E+00   1.310725520845377E+00
   1.310865685290337E+00   1.310798811194402E+00   1.310523587468423E+00
   1.310038797175868E+00   1.309343319265474E+00   1.308436130237607E+00
   1.307316305742733E+00   1.305983022110548E+00   1.304435557808370E+00
   1.302673294827523E+00   1.300695719996530E+00   1.298502426219989E+00
   1.296093113642151E+00   1.293467590734235E+00   1.290625775304641E+00
   1.287567695431290E+00   1.284293490315364E+00   1.280803411055841E+00
   1.277097821344238E+00   1.273177198079060E+00   1.269042131899519E+00
   1.264693327638121E+00   1.260131604691784E+00   1.255357897311179E+00
   1.250373254808040E+00   1.245178841680204E+00   1.239775937654177E+00
   1.234165937645022E+00   1.228350351633404E+00   1.222330804459588E+00
   1.216109035534219E+00   1.209686898465645E+00   1.203066360603586E+00
   1.196249502498838E+00   1.189238517278724E+00   1.182035709937902E+00
   1.174643496544101E+00   1.167064403358264E+00   1.159301065868513E+00
   1.151356227737231E+00   1.143232739660476E+00   1.134933558138830E+00
   1.126461744158646E+00   1.117820461782568E+00   1.109012976648042E+00
   1.100042654372416E+00   1.090912958863109E+00   1.081627450531161E+00
   1.072189784406395E+00   1.062603708152281E+00   1.052873059978467E+00
   1.043001766448896E+00   1.032993840183308E+00   1.022853377449913E+00
   1.012584555646991E+00   1.002191630671193E+00   9.916789341704138E-01
   9.810508706791781E-01   9.703119146347055E-01   9.594666072667807E-01
   9.485195533865006E-01   9.374754180203438E-01   9.263389229417279E-01
   9.151148430740822E-01   9.038080027715414E-01   8.924232719789403E-01
   8.809655622736957E-01   8.694398227931924E-01   8.578510360523806E-01
   8.462042136574985E-01   8.345043919231423E-01   8.227566274012676E-01
   8.109659923321482E-01   7.991375700287855E-01   7.872764502077600E-01
   7.753877242810079E-01   7.634764806244633E-01   7.515477998409227E-01
   7.396067500358118E-01   7.276583821257634E-01   7.157077252010168E-01
   7.037597819636113E-01   6.918195242641502E-01   6.798918887605504E-01
   6.679817727226652E-01   6.560940300069475E-01   6.442334672254301E-01
   6.324048401331859E-01   6.206128502580947E-01   6.088621417960938E-01
   5.971572987940685E-01   5.855028426409579E-01   5.739032298853360E-01
   5.623628503943525E-01   5.508860258641037E-01   5.394770086847444E-01
   5.281399811543458E-01   5.168790550229690E-01   5.056982713319168E-01
   4.946016004919952E-01   4.835929425183313E-01   4.726761273077326E-01
   4.618549148082256E-01   4.511329948906780E-01   4.405139866919724E-01
   4.300014371623114E-01   4.195988185218910E-01   4.093095243220858E-01
   3.991368638223988E-01   3.890840544458574E-01   3.791542121700054E-01
   3.693503398520615E-01   3.596753136728125E-01   3.501318681032810E-01
   3.407225800300295E-01   3.314498528886692E-01   3.223159018142197E-01
   3.133227408850239E-01   3.044721734856992E-01   2.957657866322626E-01
   2.872049497995709E-01   2.787908184017730E-01   2.705243416539457E-01
   2.624062741501937E-01   2.544371901890877E-01   2.466174997037829E-01
   2.389474646286581E-01   2.314272146465405E-01   2.240567614773995E-01
   2.168360111444519E-01   2.097647739387204E-01   2.028427720580847E-01
   1.960696450955030E-01   1.894449536825444E-01   1.829681816608698E-01
   1.766387371668393E-01   1.704559529881521E-01   1.644190865015993E-01
   1.585273194407085E-01   1.527797576809704E-01   1.471754311746347E-01
   1.417132941199737E-01   1.363922254124928E-01   1.312110293974446E-01
   1.261684369230369E-01   1.212631066804414E-01   1.164936268086456E-01
   1.118585167379871E-01   1.073562292447546E-01   1.029851526896307E-01
   9.874361341430281E-02   9.462987827276821E-02   9.064215727635307E-02
   8.677860633399274E-02   8.303733007172918E-02   7.941638471756229E-02
   7.591378103969974E-02   7.252748732785869E-02   6.925543240859103E-02
   6.609550868664656E-02   6.304557520518606E-02   6.010346071824087E-02
   5.726696676922323E-02   5.453387076955613E-02   5.190192907164793E-02
   4.936888003051192E-02   4.693244704835491E-02   4.459034159645046E-02
   4.234026620859229E-02   4.017991744040701E-02   3.810698878880271E-02
   3.611917356585109E-02   3.421416772145078E-02   3.238967260920302E-02
   3.064339769004814E-02   2.897306316836542E-02   2.737640255542649E-02
   2.585116515531364E-02   2.439511846866632E-02   2.300605050989913E-02
   2.168177203383927E-02   2.042011866805874E-02   1.921895294752126E-02
   1.807616624852489E-02   1.698968061929333E-02   1.595745050495018E-02
   1.497746436499692E-02   1.404774618180512E-02   1.316635685902199E-02
   1.233139550917538E-02   1.154100063014498E-02   1.079335117054034E-02
   1.008666748438932E-02   9.419212175893334E-03   8.789290835345211E-03
   8.195252667625797E-03   7.635491015004537E-03   7.108443776260551E-03
   6.612593724409966E-03   6.146468725577475E-03   5.708641861783395E-03
   5.297731460630447E-03   4.912401035067670E-03   4.551359136582487E-03
   4.213359125326294E-03   3.897198860814466E-03   3.601720316958937E-03
   3.325809125291187E-03   3.068394050316290E-03   2.828446401005224E-03
   2.604979382483820E-03   2.397047392013078E-03   2.203745263377637E-03
   2.024207463807579E-03   1.857607247554316E-03   1.703155770223582E-03
   1.560101167938513E-03   1.427727605363660E-03   1.305354296566679E-03
   1.192334502628444E-03   1.088054509834871E-03   9.919325921949867E-04
   9.034179619299921E-04   8.219897114676627E-04   7.471557503557648E-04
   6.784517403778578E-04   6.154400320154306E-04   5.577086052525589E-04
   5.048700175639615E-04   4.565603617653755E-04   4.124382362375391E-04
   3.721837298628077E-04   3.354974238376182E-04   3.020994123457792E-04
   2.717283438980283E-04   2.441404849636025E-04   2.191088073408075E-04
   1.964221005368371E-04   1.758841102533979E-04   1.573127039050081E-04
   1.405390639320395E-04   1.254069095114894E-04   1.117717471157993E-04
   9.950015022442882E-05   8.846906835487220E-05   7.856516544980931E-05
   6.968418753545982E-05   6.173035945320785E-05   5.461581036234653E-05
   4.826002761643688E-05   4.258933852927819E-05   3.753641946877500E-05
   3.303983164791650E-05   2.904358292145439E-05   2.549671484442275E-05
   2.235291420408765E-05   1.957014819990543E-05   1.711032241623921E-05
   1.493896070953553E-05   1.302490611498422E-05   1.134004186694637E-05
   9.859031622202193E-06   8.559077974902104E-06   7.419698356563256E-06
   6.422517423102949E-06   5.551075043313492E-06   4.790649018940135E-06
   4.128091685217144E-06   3.551679561951407E-06   3.050975248635063E-06
   2.616700782249405E-06   2.240621703034495E-06   1.915441101197758E-06
   1.634702945985290E-06   1.392704027414796E-06   1.184413869946614E-06
   1.005402006127229E-06   8.517720264508947E-07   7.201018490087372E-07
   6.073896785764530E-07   5.110051491686918E-07   4.286451668903321E-07
   3.582939858302902E-07   2.981870997294522E-07   2.467782705989009E-07
   2.027110123865713E-07   1.647847866514216E-07   1.320824923413355E-07
   1.029643906611928E-07   0.000000000000000E+00   0.000000000000000E+00
   0.000000000000000E+00   0.000000000000000E+00   0.000000000000000E+00
   0.000000000000000E+00   0.000000000000000E+00   0.000000000000000E+00
   0.000000000000000E+00   0.000000000000000E+00   0.000000000000000E+00
   0.000000000000000E+00   0.000000000000000E+00   0.000000000000000E+00
   0.000000000000000E+00   0.000000000000000E+00   0.000000000000000E+00
   0.000000000000000E+00   0.000000000000000E+00   0.000000000000000E+00
   0.000000000000000E+00   0.000000000000000E+00   0.000000000000000E+00
   0.000000000000000E+00   0.000000000000000E+00   0.000000000000000E+00
   0.000000000000000E+00   0.000000000000000E+00   0.000000000000000E+00
   0.000000000000000E+00   0.000000000000000E+00   0.000000000000000E+00
   0.000000000000000E+00   0.000000000000000E+00   0.000000000000000E+00
   0.000000000000000E+00   0.000000000000000E+00   0.000000000000000E+00
   0.000000000000000E+00   0.000000000000000E+00   0.000000000000000E+00
   0.000000000000000E+00   0.000000000000000E+00   0.000000000000000E+00
   0.000000000000000E+00   0.000000000000000E+00   0.000000000000000E+00
   0.000000000000000E+00   0.000000000000000E+00   0.000000000000000E+00
   0.000000000000000E+00   0.000000000000000E+00   0.000000000000000E+00
   0.000000000000000E+00   0.000000000000000E+00   0.000000000000000E+00
   0.000000000000000E+00   0.000000000000000E+00   0.000000000000000E+00
   0.000000000000000E+00   0.000000000000000E+00   0.000000000000000E+00
   0.000000000000000E+00   0.000000000000000E+00   0.000000000000000E+00
   0.000000000000000E+00   0.000000000000000E+00   0.000000000000000E+00
   0.000000000000000E+00   0.000000000000000E+00   0.000000000000000E+00
   0.000000000000000E+00   0.000000000000000E+00   0.000000000000000E+00
   0.000000000000000E+00   0.000000000000000E+00   0.000000000000000E+00
   0.000000000000000E+00   0.000000000000000E+00   0.000000000000000E+00
   0.000000000000000E+00   0.000000000000000E+00   0.000000000000000E+00
   0.000000000000000E+00   0.000000000000000E+00   0.000000000000000E+00
   0.000000000000000E+00   0.000000000000000E+00   0.000000000000000E+00
   0.000000000000000E+00   0.000000000000000E+00   0.000000000000000E+00
   0.000000000000000E+00   0.000000000000000E+00   0.000000000000000E+00
   0.000000000000000E+00   0.000000000000000E+00   0.000000000000000E+00
   0.000000000000000E+00   0.000000000000000E+00   0.000000000000000E+00
   0.000000000000000E+00   0.000000000000000E+00   0.000000000000000E+00
   0.000000000000000E+00   0.000000000000000E+00   0.000000000000000E+00
   0.000000000000000E+00   0.000000000000000E+00   0.000000000000000E+00
   0.000000000000000E+00   0.000000000000000E+00   0.000000000000000E+00
   0.000000000000000E+00   0.000000000000000E+00   0.000000000000000E+00
   0.000000000000000E+00   0.000000000000000E+00   0.000000000000000E+00
   0.000000000000000E+00   0.000000000000000E+00   0.000000000000000E+00
   0.000000000000000E+00   0.000000000000000E+00   0.000000000000000E+00
   0.000000000000000E+00   0.000000000000000E+00   0.000000000000000E+00
   0.000000000000000E+00   0.000000000000000E+00   0.000000000000000E+00
   0.000000000000000E+00   0.000000000000000E+00   0.000000000000000E+00
   0.000000000000000E+00   0.000000000000000E+00   0.000000000000000E+00
   0.000000000000000E+00   0.000000000000000E+00   0.000000000000000E+00
   0.000000000000000E+00   0.000000000000000E+00   0.000000000000000E+00
   0.000000000000000E+00   0.000000000000000E+00   0.000000000000000E+00
   0.000000000000000E+00   0.000000000000000E+00   0.000000000000000E+00
   0.000000000000000E+00   0.000000000000000E+00   0.000000000000000E+00
   0.000000000000000E+00   0.000000000000000E+00   0.000000000000000E+00
   0.000000000000000E+00   0.000000000000000E+00   0.000000000000000E+00
   0.000000000000000E+00   0.000000000000000E+00   0.000000000000000E+00
   0.000000000000000E+00   0.000000000000000E+00   0.000000000000000E+00
   0.000000000000000E+00   0.000000000000000E+00   0.000000000000000E+00
   0.000000000000000E+00   0.000000000000000E+00   0.000000000000000E+00
   0.000000000000000E+00   0.000000000000000E+00   0.000000000000000E+00
   0.000000000000000E+00   0.000000000000000E+00   0.000000000000000E+00
   0.000000000000000E+00   0.000000000000000E+00   0.000000000000000E+00
   0.000000000000000E+00   0.000000000000000E+00   0.000000000000000E+00
   0.000000000000000E+00   0.000000000000000E+00   0.000000000000000E+00
   0.000000000000000E+00   0.000000000000000E+00   0.000000000000000E+00
   0.000000000000000E+00   0.000000000000000E+00   0.000000000000000E+00
   0.000000000000000E+00   0.000000000000000E+00   0.000000000000000E+00
   0.000000000000000E+00   0.000000000000000E+00   0.000000000000000E+00
   0.000000000000000E+00   0.000000000000000E+00   0.000000000000000E+00
   0.000000000000000E+00   0.000000000000000E+00   0.000000000000000E+00
   0.000000000000000E+00   0.000000000000000E+00   0.000000000000000E+00
   0.000000000000000E+00   0.000000000000000E+00   0.000000000000000E+00
   0.000000000000000E+00   0.000000000000000E+00   0.000000000000000E+00
   0.000000000000000E+00   0.000000000000000E+00   0.000000000000000E+00
   0.000000000000000E+00   0.000000000000000E+00   0.000000000000000E+00
   0.000000000000000E+00   0.000000000000000E+00   0.000000000000000E+00
   0.000000000000000E+00   0.000000000000000E+00   0.000000000000000E+00
   0.000000000000000E+00   0.000000000000000E+00   0.000000000000000E+00
   0.000000000000000E+00   0.000000000000000E+00   0.000000000000000E+00
   0.000000000000000E+00   0.000000000000000E+00   0.000000000000000E+00
   0.000000000000000E+00   0.000000000000000E+00   0.000000000000000E+00
   0.000000000000000E+00   0.000000000000000E+00   0.000000000000000E+00
   0.000000000000000E+00   0.000000000000000E+00   0.000000000000000E+00
   0.000000000000000E+00   0.000000000000000E+00   0.000000000000000E+00
   0.000000000000000E+00   0.000000000000000E+00   0.000000000000000E+00
   0.000000000000000E+00   0.000000000000000E+00   0.000000000000000E+00
   0.000000000000000E+00   0.000000000000000E+00   0.000000000000000E+00
   0.000000000000000E+00   0.000000000000000E+00   0.000000000000000E+00
   0.000000000000000E+00   0.000000000000000E+00   0.000000000000000E+00
   0.000000000000000E+00   0.000000000000000E+00   0.000000000000000E+00
   0.000000000000000E+00   0.000000000000000E+00   0.000000000000000E+00
   0.000000000000000E+00
      </PP_GIPAW_CORE_ORBITAL.3>
    </PP_GIPAW_CORE_ORBITALS>
    <PP_GIPAW_ORBITALS number_of_valence_orbitals="5">
      <PP_GIPAW_ORBITAL.1 index="1" label="3S" l="0" cutoff_radius="2.00000000000000" ultrasoft_cutoff_radius="2.00000000000000">
        <PP_GIPAW_WFS_AE size="1525">
   2.742608094825365E-04   2.770026823928378E-04   2.797719666823676E-04
   2.825689363914395E-04   2.853938571006825E-04   2.882469844752897E-04
   2.911286063388140E-04   2.940390059861385E-04   2.969784707645156E-04
   2.999472908842649E-04   3.029457594470014E-04   3.059741724743744E-04
   3.090328289370871E-04   3.121220307842000E-04   3.152420829727228E-04
   3.183932934974988E-04   3.215759734213841E-04   3.247904369057251E-04
   3.280370012411353E-04   3.313159868785768E-04   3.346277174607482E-04
   3.379725198537818E-04   3.413507241792534E-04   3.447626638465072E-04
   3.482086755853009E-04   3.516890994787706E-04   3.552042789967219E-04
   3.587545610292486E-04   3.623402959206830E-04   3.659618375038799E-04
   3.696195431348395E-04   3.733137737276701E-04   3.770448937898961E-04
   3.808132714582659E-04   3.846192785336728E-04   3.884632905149007E-04
   3.923456866462078E-04   3.962668499595134E-04   4.002271672732565E-04
   4.042270292668654E-04   4.082668305672588E-04   4.123469696694393E-04
   4.164678489807196E-04   4.206298749723037E-04   4.248334581840619E-04
   4.290790132327445E-04   4.333669588061479E-04   4.376977177200586E-04
   4.420717171218406E-04   4.464893884370761E-04   4.509511672488532E-04
   4.554574935169754E-04   4.600088115840858E-04   4.646055701596910E-04
   4.692482225692880E-04   4.739372265915890E-04   4.786730444546531E-04
   4.834561430576214E-04   4.882869939471457E-04   4.931660733731331E-04
   4.980938622908250E-04   5.030708464188919E-04   5.080975163292660E-04
   5.131743674887556E-04   5.183019003120691E-04   5.234806202230556E-04
   5.287110375758108E-04   5.339936677755805E-04   5.393290314314631E-04
   5.447176542793667E-04   5.501600672975079E-04   5.556568068108740E-04
   5.612084144472822E-04   5.668154371168464E-04   5.724784272038771E-04
   5.781979426430529E-04   5.839745469269496E-04   5.898088090567816E-04
   5.957013036662492E-04   6.016526112724484E-04   6.076633181017361E-04
   6.137340160427043E-04   6.198653029531060E-04   6.260577827427440E-04
   6.323120652670576E-04   6.386287664057538E-04   6.450085080678908E-04
   6.514519183372106E-04   6.579596316967160E-04   6.645322889538688E-04
   6.711705372058084E-04   6.778750299195694E-04   6.846464270575089E-04
   6.914853951954892E-04   6.983926074937894E-04   7.053687436724945E-04
   7.124144903055189E-04   7.195305408627598E-04   7.267175956909999E-04
   7.339763620317201E-04   7.413075541156346E-04   7.487118933067014E-04
   7.561901080620795E-04   7.637429340273629E-04   7.713711142652987E-04
   7.790753992478950E-04   7.868565467570041E-04   7.947153221573840E-04
   8.026524984225499E-04   8.106688561790239E-04   8.187651837802502E-04
   8.269422772969216E-04   8.352009407876683E-04   8.435419863703416E-04
   8.519662341484127E-04   8.604745123040197E-04   8.690676571770866E-04
   8.777465135433074E-04   8.865119345372811E-04   8.953647815936789E-04
   9.043059247652195E-04   9.133362428004217E-04   9.224566231046202E-04
   9.316679618462059E-04   9.409711641468777E-04   9.503671440613692E-04
   9.598568245290290E-04   9.694411376533519E-04   9.791210249143348E-04
   9.888974371220103E-04   9.987713345427608E-04   1.008743686904145E-03
   1.018815473409485E-03   1.028987682978109E-03   1.039261314369104E-03
   1.049637376215014E-03   1.060116887156084E-03   1.070700875860101E-03
   1.081390381044442E-03   1.092186451821025E-03   1.103090147771671E-03
   1.114102538899908E-03   1.125224705807744E-03   1.136457739747161E-03
   1.147802742671831E-03   1.159260827461104E-03   1.170833118047227E-03
   1.182520749421384E-03   1.194324867783526E-03   1.206246630668901E-03
   1.218287207094874E-03   1.230447777571093E-03   1.242729534241286E-03
   1.255133681023657E-03   1.267661433710585E-03   1.280314020186145E-03
   1.293092680410738E-03   1.305998666541461E-03   1.319033243171851E-03
   1.332197687343187E-03   1.345493288562043E-03   1.358921349079098E-03
   1.372483184037992E-03   1.386180121568304E-03   1.400013502947907E-03
   1.413984682605125E-03   1.428095028313123E-03   1.442345921366558E-03
   1.456738756626379E-03   1.471274942618867E-03   1.485955901854330E-03
   1.500783070864312E-03   1.515757900223761E-03   1.530881854839698E-03
   1.546156414039716E-03   1.561583071679824E-03   1.577163336303985E-03
   1.592898731348197E-03   1.608790795290105E-03   1.624841081683599E-03
   1.641051159279155E-03   1.657422612293952E-03   1.673957040549034E-03
   1.690656059565867E-03   1.707521300736331E-03   1.724554411462067E-03
   1.741757055363984E-03   1.759130912396870E-03   1.776677678985996E-03
   1.794399068227780E-03   1.812296810038131E-03   1.830372651292567E-03
   1.848628355974869E-03   1.867065705423077E-03   1.885686498448106E-03
   1.904492551465332E-03   1.923485698717189E-03   1.942667792418788E-03
   1.962040702936188E-03   1.981606318957383E-03   2.001366547672870E-03
   2.021323314952314E-03   2.041478565521512E-03   2.061834263150579E-03
   2.082392390833228E-03   2.103154950950090E-03   2.124123965461383E-03
   2.145301476117453E-03   2.166689544637794E-03   2.188290252902692E-03
   2.210105703136584E-03   2.232138018081372E-03   2.254389341237003E-03
   2.276861837047857E-03   2.299557691075481E-03   2.322479110214333E-03
   2.345628322897801E-03   2.369007579332090E-03   2.392619151663289E-03
   2.416465334179206E-03   2.440548443536246E-03   2.464870818970622E-03
   2.489434822545938E-03   2.514242839326008E-03   2.539297277588102E-03
   2.564600569071268E-03   2.590155169180877E-03   2.615963557223714E-03
   2.642028236656944E-03   2.668351735279926E-03   2.694936605393425E-03
   2.721785424144372E-03   2.748900793793634E-03   2.776285341852434E-03
   2.803941721289164E-03   2.831872610841144E-03   2.860080715286798E-03
   2.888568765601898E-03   2.917339519264203E-03   2.946395760569796E-03
   2.975740300768854E-03   3.005375978280970E-03   3.035305659063548E-03
   3.065532236908352E-03   3.096058633589511E-03   3.126887799111148E-03
   3.158022712054732E-03   3.189466379797363E-03   3.221221838795487E-03
   3.253292154853001E-03   3.285680423394738E-03   3.318389769742054E-03
   3.351423349390695E-03   3.384784348290963E-03   3.418475983130372E-03
   3.452501501618680E-03   3.486864182773199E-03   3.521567337220347E-03
   3.556614307533770E-03   3.592008468457833E-03   3.627753227080650E-03
   3.663852023381282E-03   3.700308330510670E-03   3.737125654830703E-03
   3.774307536411202E-03   3.811857549355196E-03   3.849779302080247E-03
   3.888076437764540E-03   3.926752634425053E-03   3.965811605288635E-03
   4.005257099388866E-03   4.045092901594564E-03   4.085322832941233E-03
   4.125950751104626E-03   4.166980550649190E-03   4.208416163390656E-03
   4.250261558729812E-03   4.292520743994526E-03   4.335197764783686E-03
   4.378296705313885E-03   4.421821688769056E-03   4.465776877652787E-03
   4.510166474143391E-03   4.554994720451820E-03   4.600265899182349E-03
   4.645984333696103E-03   4.692154388477400E-03   4.738780469502942E-03
   4.785867024613873E-03   4.833418543890685E-03   4.881439560031028E-03
   4.929934648730394E-03   4.978908429065705E-03   5.028365563881841E-03
   5.078310760181126E-03   5.128748769515769E-03   5.179684388383093E-03
   5.231122458623712E-03   5.283067867819792E-03   5.335525549717253E-03
   5.388500484701468E-03   5.441997700111468E-03   5.496022270503377E-03
   5.550579318344361E-03   5.605674014261011E-03   5.661311577316924E-03
   5.717497275798568E-03   5.774236427595012E-03   5.831534400436293E-03
   5.889396612532027E-03   5.947828532876960E-03   6.006835681541928E-03
   6.066423630376776E-03   6.126598003322097E-03   6.187364476900056E-03
   6.248728780659935E-03   6.310696697634454E-03   6.373274064799028E-03
   6.436466773533913E-03   6.500280770089358E-03   6.564722056053975E-03
   6.629796688826137E-03   6.695510782088496E-03   6.761870506285577E-03
   6.828882089104473E-03   6.896551815958616E-03   6.964886030474647E-03
   7.033891134982363E-03   7.103573591007732E-03   7.173939919768993E-03
   7.244996702675818E-03   7.316750581831540E-03   7.389208260538419E-03
   7.462376503805973E-03   7.536262138862332E-03   7.610872055668627E-03
   7.686213207436392E-03   7.762292611147963E-03   7.839117348079893E-03
   7.916694564329320E-03   7.995031471343316E-03   8.074135346451185E-03
   8.154013533399685E-03   8.234673442891185E-03   8.316122553124698E-03
   8.398368410339814E-03   8.481418629363476E-03   8.565280894159602E-03
   8.649962958381515E-03   8.735472645927172E-03   8.821817851497145E-03
   8.909006541155352E-03   8.997046752892486E-03   9.085946597192144E-03
   9.175714257599582E-03   9.266357991293111E-03   9.357886129658065E-03
   9.450307078863317E-03   9.543629320440327E-03   9.637861411864648E-03
   9.733011987139877E-03   9.829089757383992E-03   9.926103511418059E-03
   1.002406211635724E-02   1.012297451820404E-02   1.022284974244383E-02
   1.032369689464247E-02   1.042552516104622E-02   1.052834380918384E-02
   1.063216218846598E-02   1.073698973081336E-02   1.084283595137371E-02
   1.094971044905312E-02   1.105762290679764E-02   1.116658309229519E-02
   1.127660085875036E-02   1.138768614589812E-02   1.149984898052915E-02
   1.161309947647771E-02   1.172744783557145E-02   1.184290434836439E-02
   1.195947939463779E-02   1.207718344406930E-02   1.219602705684999E-02
   1.231602088431048E-02   1.243717566954756E-02   1.255950224805161E-02
   1.268301154833441E-02   1.280771459255768E-02   1.293362249716186E-02
   1.306074647349532E-02   1.318909782844370E-02   1.331868796505935E-02
   1.344952838319070E-02   1.358163068011153E-02   1.371500655114990E-02
   1.384966779031668E-02   1.398562629093360E-02   1.412289404626046E-02
   1.426148315012175E-02   1.440140579753210E-02   1.454267428532072E-02
   1.468530101275462E-02   1.482929848216032E-02   1.497467929954405E-02
   1.512145617521021E-02   1.526964192437791E-02   1.541924946779544E-02
   1.557029183235251E-02   1.572278215169003E-02   1.587673366680731E-02
   1.603215972666641E-02   1.618907378879348E-02   1.634748941987700E-02
   1.650742029636247E-02   1.666888020504359E-02   1.683188304364952E-02
   1.699644282142819E-02   1.716257365972524E-02   1.733028979255845E-02
   1.749960556718751E-02   1.767053544467865E-02   1.784309400046417E-02
   1.801729592489639E-02   1.819315602379580E-02   1.837068921899331E-02
   1.854991054886606E-02   1.873083516886672E-02   1.891347835204592E-02
   1.909785548956742E-02   1.928398209121595E-02   1.947187378589717E-02
   1.966154632212955E-02   1.985301556852790E-02   2.004629751427801E-02
   2.024140826960239E-02   2.043836406621645E-02   2.063718125777488E-02
   2.083787632030801E-02   2.104046585264750E-02   2.124496657684126E-02
   2.145139533855701E-02   2.165976910747418E-02   2.187010497766376E-02
   2.208242016795558E-02   2.229673202229279E-02   2.251305801007285E-02
   2.273141572647484E-02   2.295182289277246E-02   2.317429735663239E-02
   2.339885709239738E-02   2.362552020135380E-02   2.385430491198296E-02
   2.408522958019583E-02   2.431831268955054E-02   2.455357285145227E-02
   2.479102880533488E-02   2.503069941882377E-02   2.527260368787945E-02
   2.551676073692118E-02   2.576318981893016E-02   2.601191031553164E-02
   2.626294173705541E-02   2.651630372257392E-02   2.677201603991753E-02
   2.703009858566618E-02   2.729057138511689E-02   2.755345459222622E-02
   2.781876848952739E-02   2.808653348802092E-02   2.835677012703836E-02
   2.862949907407834E-02   2.890474112461410E-02   2.918251720187190E-02
   2.946284835657936E-02   2.974575576668309E-02   3.003126073703477E-02
   3.031938469904475E-02   3.061014921030260E-02   3.090357595416339E-02
   3.119968673929923E-02   3.149850349921488E-02   3.180004829172667E-02
   3.210434329840380E-02   3.241141082397107E-02   3.272127329567210E-02
   3.303395326259204E-02   3.334947339493879E-02   3.366785648328179E-02
   3.398912543774724E-02   3.431330328716881E-02   3.464041317819264E-02
   3.497047837433573E-02   3.530352225499646E-02   3.563956831441616E-02
   3.597864016059066E-02   3.632076151413047E-02   3.666595620706862E-02
   3.701424818161481E-02   3.736566148885464E-02   3.772022028739276E-02
   3.807794884193855E-02   3.843887152183312E-02   3.880301279951624E-02
   3.917039724893193E-02   3.954104954387119E-02   3.991499445625078E-02
   4.029225685432620E-02   4.067286170083782E-02   4.105683405108847E-02
   4.144419905095112E-02   4.183498193480494E-02   4.222920802339852E-02
   4.262690272163831E-02   4.302809151630099E-02   4.343279997366794E-02
   4.384105373708028E-02   4.425287852441273E-02   4.466830012546468E-02
   4.508734439926655E-02   4.551003727129993E-02   4.593640473062950E-02
   4.636647282694500E-02   4.680026766751143E-02   4.723781541402552E-02
   4.767914227937655E-02   4.812427452430982E-02   4.857323845399041E-02
   4.902606041446552E-02   4.948276678902336E-02   4.994338399444628E-02
   5.040793847715632E-02   5.087645670925096E-02   5.134896518442681E-02
   5.182549041378924E-02   5.230605892154556E-02   5.279069724057957E-02
   5.327943190790520E-02   5.377228945999695E-02   5.426929642799466E-02
   5.477047933278023E-02   5.527586467992413E-02   5.578547895449888E-02
   5.629934861575717E-02   5.681750009167216E-02   5.733995977333732E-02
   5.786675400922320E-02   5.839790909928855E-02   5.893345128894305E-02
   5.947340676285914E-02   6.001780163862985E-02   6.056666196027034E-02
   6.112001369155986E-02   6.167788270922166E-02   6.224029479593774E-02
   6.280727563319567E-02   6.337885079396441E-02   6.395504573519623E-02
   6.453588579015171E-02   6.512139616054465E-02   6.571160190850396E-02
   6.630652794834932E-02   6.690619903817729E-02   6.751063977125511E-02
   6.811987456721838E-02   6.873392766306978E-02   6.935282310397546E-02
   6.997658473385547E-02   7.060523618576529E-02   7.123880087206465E-02
   7.187730197437055E-02   7.252076243329070E-02   7.316920493793404E-02
   7.382265191519481E-02   7.448112551880658E-02   7.514464761816238E-02
   7.581323978689786E-02   7.648692329123323E-02   7.716571907807060E-02
   7.784964776284294E-02   7.853872961711081E-02   7.923298455590330E-02
   7.993243212479904E-02   8.063709148674378E-02   8.134698140860039E-02
   8.206212024742768E-02   8.278252593648380E-02   8.350821597095061E-02
   8.423920739337484E-02   8.497551677882216E-02   8.571716021974014E-02
   8.646415331052618E-02   8.721651113179606E-02   8.797424823434964E-02
   8.873737862282907E-02   8.950591573906577E-02   9.027987244511193E-02
   9.105926100595274E-02   9.184409307189476E-02   9.263437966062674E-02
   9.343013113894871E-02   9.423135720416509E-02   9.503806686513770E-02
   9.585026842299489E-02   9.666796945149221E-02   9.749117677702086E-02
   9.831989645825995E-02   9.915413376546779E-02   9.999389315940924E-02
   1.008391782699141E-01   1.016899918740631E-01   1.025463358739972E-01
   1.034082112743462E-01   1.042756181592734E-01   1.051485556691312E-01
   1.060270219767248E-01   1.069110142631796E-01   1.078005286934088E-01
   1.086955603911773E-01   1.095961034137580E-01   1.105021507261777E-01
   1.114136941750480E-01   1.123307244619777E-01   1.132532311165644E-01
   1.141812024689609E-01   1.151146256220129E-01   1.160534864229657E-01
   1.169977694347364E-01   1.179474579067476E-01   1.189025337453213E-01
   1.198629774836291E-01   1.208287682511958E-01   1.217998837429545E-01
   1.227763001878500E-01   1.237579923169889E-01   1.247449333313330E-01
   1.257370948689350E-01   1.267344469717139E-01   1.277369580517682E-01
   1.287445948572259E-01   1.297573224376291E-01   1.307751041088516E-01
   1.317979014175497E-01   1.328256741051438E-01   1.338583800713311E-01
   1.348959753371271E-01   1.359384140074388E-01   1.369856482331651E-01
   1.380376281728289E-01   1.390943019537375E-01   1.401556156326749E-01
   1.412215131561241E-01   1.422919363200228E-01   1.433668247290529E-01
   1.444461157554646E-01   1.455297444974391E-01   1.466176437369903E-01
   1.477097438974086E-01   1.488059730002507E-01   1.499062566218771E-01
   1.510105178495419E-01   1.521186772370388E-01   1.532306527599070E-01
   1.543463597702027E-01   1.554657109508407E-01   1.565886162695111E-01
   1.577149829321789E-01   1.588447153361708E-01   1.599777150228569E-01
   1.611138806299360E-01   1.622531078433295E-01   1.633952893486942E-01
   1.645403147825633E-01   1.656880706831224E-01   1.668384404406329E-01
   1.679913042475123E-01   1.691465390480821E-01   1.703040184879950E-01
   1.714636128633540E-01   1.726251890695362E-01   1.737886105497333E-01
   1.749537372432257E-01   1.761204255334020E-01   1.772885281955409E-01
   1.784578943443718E-01   1.796283693814300E-01   1.807997949422250E-01
   1.819720088432392E-01   1.831448450287775E-01   1.843181335176868E-01
   1.854917003499653E-01   1.866653675332857E-01   1.878389529894519E-01
   1.890122705008140E-01   1.901851296566655E-01   1.913573357996479E-01
   1.925286899721874E-01   1.936989888629930E-01   1.948680247536410E-01
   1.960355854652779E-01   1.972014543054680E-01   1.983654100152207E-01
   1.995272267162247E-01   2.006866738583270E-01   2.018435161672863E-01
   2.029975135928398E-01   2.041484212571162E-01   2.052959894034357E-01
   2.064399633455323E-01   2.075800834172414E-01   2.087160849226908E-01
   2.098476980870392E-01   2.109746480078050E-01   2.120966546068301E-01
   2.132134325829244E-01   2.143246913652389E-01   2.154301350674160E-01
   2.165294624425657E-01   2.176223668391204E-01   2.187085361576210E-01
   2.197876528084867E-01   2.208593936708260E-01   2.219234300523441E-01
   2.229794276504064E-01   2.240270465143170E-01   2.250659410088733E-01
   2.260957597792605E-01   2.271161457173491E-01   2.281267359294614E-01
   2.291271617056752E-01   2.301170484907321E-01   2.310960158566220E-01
   2.320636774769144E-01   2.330196411029120E-01   2.339635085416991E-01
   2.348948756361642E-01   2.358133322470723E-01   2.367184622372697E-01
   2.376098434580999E-01   2.384870477381158E-01   2.393496408741718E-01
   2.401971826249830E-01   2.410292267072376E-01   2.418453207943550E-01
   2.426450065179774E-01   2.434278194722905E-01   2.441932892212657E-01
   2.449409393089204E-01   2.456702872726946E-01   2.463808446600416E-01
   2.470721170483342E-01   2.477436040681881E-01   2.483947994303073E-01
   2.490251909559554E-01   2.496342606111593E-01   2.502214845447549E-01
   2.507863331303833E-01   2.513282710125483E-01   2.518467571568480E-01
   2.523412449044935E-01   2.528111820312311E-01   2.532560108107816E-01
   2.536751680829170E-01   2.540680853262901E-01   2.544341887361400E-01
   2.547728993069910E-01   2.550836329204687E-01   2.553658004383546E-01
   2.556188078010039E-01   2.558420561312501E-01   2.560349418439212E-01
   2.561968567610936E-01   2.563271882332100E-01   2.564253192661875E-01
   2.564906286546443E-01   2.565224911213702E-01   2.565202774631711E-01
   2.564833547032137E-01   2.564110862499980E-01   2.563028320630866E-01
   2.561579488257166E-01   2.559757901244220E-01   2.557557066357932E-01
   2.554970463204988E-01   2.551991546246958E-01   2.548613746889516E-01
   2.544830475648006E-01   2.540635124390593E-01   2.536021068660178E-01
   2.530981670076282E-01   2.525510278818070E-01   2.519600236189667E-01
   2.513244877268889E-01   2.506437533640511E-01   2.499171536215152E-01
   2.491440218134817E-01   2.483236917766152E-01   2.474554981782381E-01
   2.465387768334900E-01   2.455728650315445E-01   2.445571018709732E-01
   2.434908286043400E-01   2.423733889921061E-01   2.412041296659229E-01
   2.399824005013805E-01   2.387075550002802E-01   2.373789506824881E-01
   2.359959494874269E-01   2.345579181852521E-01   2.330642287977550E-01
   2.315142590290287E-01   2.299073927059243E-01   2.282430202283194E-01
   2.265205390292122E-01   2.247393540446471E-01   2.228988781934699E-01
   2.209985328669011E-01   2.190377484279095E-01   2.170159647203546E-01
   2.149326315878640E-01   2.127872094023941E-01   2.105791696024189E-01
   2.083079952406783E-01   2.059731815414078E-01   2.035742364669581E-01
   2.011106812937065E-01   1.985820511971461E-01   1.959878958460284E-01
   1.933277800054237E-01   1.906012841485505E-01   1.878080050772117E-01
   1.849475565506632E-01   1.820195699227278E-01   1.790236947869522E-01
   1.759595996295913E-01   1.728269724901923E-01   1.696255216295321E-01
   1.663549762046518E-01   1.630150869507126E-01   1.596056268693857E-01
   1.561263919234706E-01   1.525772017374215E-01   1.489579003034442E-01
   1.452683566928105E-01   1.415084657720185E-01   1.376781489234100E-01
   1.337773547698390E-01   1.298060599029641E-01   1.257642696147219E-01
   1.216520186315143E-01   1.174693718506267E-01   1.132164250783668E-01
   1.088933057693970E-01   1.045001737667053E-01   1.000372220416392E-01
   9.550467743339698E-02   9.090280138734877E-02   8.623189069152763E-02
   8.149227821060442E-02   7.668433361662737E-02   7.180846411577664E-02
   6.686511517035000E-02   6.185477121516084E-02   5.677795636749487E-02
   5.163523512973382E-02   4.642721308371858E-02   4.115453757588541E-02
   3.581789839217262E-02   3.041802842165858E-02   2.495570430785769E-02
   1.943174708656956E-02   1.384702280914949E-02   8.202443150046359E-03
   2.498965997439709E-03  -3.262403974198250E-03  -9.080614750784470E-03
  -1.495456644570057E-02  -2.088311078837856E-02  -2.686505063546198E-02
  -3.289913950553606E-02  -3.898408113832810E-02  -4.511852907916365E-02
  -5.130108628932419E-02  -5.753030478278928E-02  -6.380468528965934E-02
  -7.012267694634934E-02  -7.648267701242009E-02  -8.288303061368021E-02
  -8.932203051095326E-02  -9.579791689367197E-02  -1.023088771972437E-01
  -1.088530459429427E-01  -1.154285045989331E-01  -1.220332814609333E-01
  -1.286653515510029E-01  -1.353226365329818E-01  -1.420030046432511E-01
  -1.487042706357221E-01  -1.554241957402934E-01  -1.621604876344557E-01
  -1.689108004282588E-01  -1.756727346634810E-01  -1.824438373285410E-01
  -1.892216018914539E-01  -1.960034683539372E-01  -2.027868233305813E-01
  -2.095690001578094E-01  -2.163472790381032E-01  -2.231188872256644E-01
  -2.298809992602493E-01  -2.366307372563511E-01  -2.433651712551556E-01
  -2.500813196467429E-01  -2.567761496698163E-01  -2.634465779957995E-01
  -2.700894714034373E-01  -2.767016475490895E-01  -2.832798758367268E-01
  -2.898208783902821E-01  -2.963213311295361E-01  -3.027778649491923E-01
  -3.091870669993126E-01  -3.155454820639206E-01  -3.218496140334169E-01
  -3.280959274655401E-01  -3.342808492290077E-01  -3.404007702236847E-01
  -3.464520471711527E-01  -3.524310044698614E-01  -3.583339361095799E-01
  -3.641571076405719E-01  -3.698967581937266E-01  -3.755491025487205E-01
  -3.811103332481051E-01  -3.865766227559613E-01  -3.919441256604048E-01
  -3.972089809197280E-01  -4.023673141523388E-01  -4.074152399708807E-01
  -4.123488643610146E-01  -4.171642871053275E-01  -4.218576042527136E-01
  -4.264249106333821E-01  -4.308623024193976E-01  -4.351658797303709E-01
  -4.393317492836114E-01  -4.433560270877408E-01  -4.472348411784604E-01
  -4.509643343948744E-01  -4.545406671945046E-01  -4.579600205048911E-01
  -4.612185986094644E-01  -4.643126320651968E-01  -4.672383806493943E-01
  -4.699921363328733E-01  -4.725702262766790E-01  -4.749690158494422E-01
  -4.771849116624289E-01  -4.792143646193219E-01  -4.810538729777694E-01
  -4.826999854197508E-01  -4.841493041278307E-01  -4.853984878644099E-01
  -4.864442550511182E-01  -4.872833868455421E-01  -4.879127302125275E-01
  -4.883292009873487E-01  -4.885297869280868E-01  -4.885115507546118E-01
  -4.882716331716152E-01  -4.878072558731871E-01  -4.871157245264851E-01
  -4.861944317320845E-01  -4.850408599586482E-01  -4.836525844495954E-01
  -4.820272760994919E-01  -4.801627042979198E-01  -4.780567397386257E-01
  -4.757073571917766E-01  -4.731126382371877E-01  -4.702707739564123E-01
  -4.671800675816127E-01  -4.638389370991520E-01  -4.602459178058693E-01
  -4.563996648160122E-01  -4.522989555168184E-01  -4.479426919707440E-01
  -4.433299032623372E-01  -4.384597477877621E-01  -4.333315154849638E-01
  -4.279446300024617E-01  -4.222986508047366E-01  -4.163932752121588E-01
  -4.102283403733726E-01  -4.038038251680237E-01  -3.971198520376700E-01
  -3.901766887426775E-01  -3.829747500428434E-01  -3.755145992994397E-01
  -3.677969499962976E-01  -3.598226671774967E-01  -3.515927687991399E-01
  -3.431084269926243E-01  -3.343709692367402E-01  -3.253818794358439E-01
  -3.161427989012717E-01  -3.066555272330800E-01  -2.969220230991150E-01
  -2.869444049083390E-01  -2.767249513752727E-01  -2.662661019723447E-01
  -2.555704572668899E-01  -2.446407791394981E-01  -2.334799908803863E-01
  -2.220911771604671E-01  -2.104775838737952E-01  -1.986426178481212E-01
  -1.865898464203476E-01  -1.743229968737868E-01  -1.618459557342582E-01
  -1.491627679222430E-01  -1.362776357585341E-01  -1.231949178210908E-01
  -1.099191276511255E-01  -9.645493230681852E-02  -8.280715076348309E-02
  -6.898075215947851E-02  -5.498085388769981E-02  -4.081271953305448E-02
  -2.648175665696386E-02  -1.199351443059277E-02   2.646318880782676E-03
   1.743191857913651E-02   3.235732633692299E-02   4.741645313758804E-02
   6.260308234807758E-02   7.791087291741133E-02   9.333336269481861E-02
   1.088639718604611E-01   1.244960064614304E-01   1.402226620455359E-01
   1.560370273854232E-01   1.719320882858252E-01   1.879007314672706E-01
   2.039357485204073E-01   2.200298399262554E-01   2.361756191392350E-01
   2.523656167317323E-01   2.685922846013022E-01   2.848480002443895E-01
   3.011250711036875E-01   3.174157389999764E-01   3.337121846634990E-01
   3.500065323846619E-01   3.662908548091001E-01   3.825571779079234E-01
   3.987974861602685E-01   4.150037279920855E-01   4.311678215223436E-01
   4.472816606754241E-01   4.633371217261993E-01   4.793260703518376E-01
   4.952403692712328E-01   5.110718865583654E-01   5.268125047187856E-01
   5.424541306172501E-01   5.579887063373373E-01   5.734082210380457E-01
   5.887047238447844E-01   6.038703377691960E-01   6.188972745899863E-01
   6.337778505417672E-01   6.485045025480416E-01   6.630698045972166E-01
   6.774664836995431E-01   6.916874346858808E-01   7.057257329305167E-01
   7.195746439221656E-01   7.332276285000143E-01   7.466783425519591E-01
   7.599206300790692E-01   7.729485087981384E-01   7.857561479031611E-01
   7.983378382319019E-01   8.106879558465931E-01   8.228009208610063E-01
   8.346711541184010E-01   8.462930349155205E-01   8.576608632510423E-01
   8.687688299612639E-01   8.796109975611204E-01   8.901812936818689E-01
   9.004735178103686E-01   9.104813607650868E-01   9.201984351843827E-01
   9.296183144219097E-01   9.387345767506700E-01   9.475408517009341E-01
   9.560308656511032E-01   9.641984843520358E-01   9.720377507664527E-01
   9.795429173229138E-01   9.867084723227835E-01   9.935291607404035E-01
   1.000000000000000E+00   1.006116291505323E+00   1.011873628765332E+00
   1.017267902934345E+00   1.022295306501080E+00   1.026952335745916E+00
   1.031235792460604E+00   1.035142785303631E+00   1.038670731056009E+00
   1.041817355950180E+00   1.044580697170009E+00   1.046959104561506E+00
   1.048951242550179E+00   1.050556092229584E+00   1.051772953564445E+00
   1.052601447638771E+00   1.053041518872752E+00   1.053093437130587E+00
   1.052757799643373E+00   1.052035532675796E+00   1.050927892871868E+00
   1.049436468222491E+00   1.047563178605868E+00   1.045310275860124E+00
   1.042680343355747E+00   1.039676295043271E+00   1.036301373958928E+00
   1.032559150177563E+00   1.028453518207977E+00   1.023988693830955E+00
   1.019169210384577E+00   1.013999914505002E+00   1.008485961333851E+00
   1.002632809205611E+00   9.964462138301891E-01   9.899322219870073E-01
   9.830971647478058E-01   9.759476502457530E-01   9.684905560085598E-01
   9.607330208731480E-01   9.526824364990549E-01   9.443464384972163E-01
   9.357328971901269E-01   9.268499080186200E-01   9.177057816097217E-01
   9.083090335192128E-01   8.986683736617420E-01   8.887926954405647E-01
   8.786910645883093E-01   8.683727077295936E-01   8.578470006758712E-01
   8.471234564626092E-01   8.362117131388241E-01   8.251215213191271E-01
   8.138627315088323E-01   8.024452812133226E-01   7.908791818438240E-01
   7.791745054329714E-01   7.673413711751099E-01   7.553899318081592E-01
   7.433303598559924E-01   7.311728337525663E-01   7.189275238718926E-01
   7.066045784908330E-01   6.942141097144320E-01   6.817661793966655E-01
   6.692707850925844E-01   6.567378460807095E-01   6.441771894973344E-01
   6.315985366268920E-01   6.190114893946858E-01   6.064255171099926E-01
   5.938499435087226E-01   5.812939341454268E-01   5.687664841843898E-01
   5.562764066388359E-01   5.438323211058544E-01   5.314426430425444E-01
   5.191155736260715E-01   5.068590902369112E-01   4.946809376005632E-01
   4.825886196184335E-01   4.705893919135989E-01   4.586902551118953E-01
   4.468979488731828E-01   4.352189466819260E-01   4.236594514004858E-01
   4.122253915828358E-01   4.009224185408843E-01   3.897559041503109E-01
   3.787309393778747E-01   3.678523335076082E-01   3.571246140392196E-01
   3.465520272284520E-01   3.361385392361079E-01   3.258878378499824E-01
   3.158033347420569E-01   3.058881682219997E-01   2.961452064472823E-01
   2.865770510500376E-01   2.771860411411308E-01   2.679742576527484E-01
   2.589435279820999E-01   2.500954309005117E-01   2.414313016942400E-01
   2.329522375056654E-01   2.246591028461068E-01   2.165525352542493E-01
   2.086329510770500E-01   2.009005513529144E-01   1.933553277798572E-01
   1.859970687542307E-01   1.788253654683466E-01   1.718396180579066E-01
   1.650390417925292E-01   1.584226733047907E-01   1.519893768550402E-01
   1.457378506307914E-01   1.396666330807036E-01   1.337741092840420E-01
   1.280585173570396E-01   1.225179548977765E-01   1.171503854710542E-01
   1.119536451342852E-01   1.069254490046676E-01   1.020633978668830E-01
   9.736498481928695E-02   9.282760195507123E-02   8.844854707321784E-02
   8.422503041225980E-02   8.015418139797463E-02   7.623305539419815E-02
   7.245864044402625E-02   6.882786398682610E-02   6.533759953477990E-02
   6.198467329120897E-02   5.876587069175510E-02   5.567794284871407E-02
   5.271761287850148E-02   4.988158209245420E-02   4.716653603198215E-02
   4.456915033050683E-02   4.208609638664113E-02   3.971404683561919E-02
   3.744968080896805E-02   3.528968897567131E-02   3.323077836141289E-02
   3.126967694568976E-02   2.940313803941921E-02   2.762794444793348E-02
   2.594091242578634E-02   2.433889543049013E-02   2.281878768213440E-02
   2.137752753486770E-02   2.001210066459187E-02   1.871954307513015E-02
   1.749694392283060E-02   1.634144815731619E-02   1.525025897414244E-02
   1.422064007367813E-02   1.324991771971948E-02   1.233548259126522E-02
   1.147479142150970E-02   1.066536841938032E-02   9.904806470729026E-03
   9.190768118422770E-03   8.520986322886642E-03   7.893265006964740E-03
   7.305479391125327E-03   6.755576126930864E-03   6.241573238240209E-03
   5.761559880770805E-03   5.313695931420011E-03   4.896211419154411E-03
   4.507405809372758E-03   4.145647153493419E-03   3.809371115176867E-03
   3.497079884130917E-03   3.207340987917169E-03   2.938786011626746E-03
   2.690109234755855E-03   2.460066194109061E-03   2.247472181102550E-03
   2.051200681434711E-03   1.870181764735777E-03   1.703400431492170E-03
   1.549894924253870E-03   1.408755009875162E-03   1.279120239290995E-03
   1.160178191078818E-03   1.051162704805704E-03   9.513521098995921E-04
   8.600674555054609E-04   7.766707464936666E-04   7.005631904747390E-04
   6.311834603429675E-04   5.680059765201340E-04   5.105392127015420E-04
   4.583240285198604E-04   4.109320321390631E-04   3.679639753714375E-04
   3.290481834752988E-04   2.938390213391016E-04   2.620153972876545E-04
   2.332793052556599E-04   2.073544055591434E-04   1.839846439513576E-04
   1.629329080695576E-04   1.439797197537023E-04   1.269219610362000E-04
   1.115716308488904E-04   9.775462865153900E-05   8.530956023285528E-05
   7.408655984275308E-05   6.394612154907107E-05   5.475793123107183E-05
   4.639968887371009E-05   3.875590874669332E-05   3.171668256146631E-05
   2.517638769943304E-05   1.903231897470328E-05   1.318321798412010E-05
   7.527668719762821E-06   1.962321542688532E-06  -3.620100447241750E-06
  -9.333068521883992E-06  -1.529885700020367E-05  -2.165157664022812E-05
  -2.854073453000644E-05  -3.613544533863926E-05  -4.462944742660241E-05
   0.000000000000000E+00   0.000000000000000E+00   0.000000000000000E+00
   0.000000000000000E+00   0.000000000000000E+00   0.000000000000000E+00
   0.000000000000000E+00   0.000000000000000E+00   0.000000000000000E+00
   0.000000000000000E+00   0.000000000000000E+00   0.000000000000000E+00
   0.000000000000000E+00   0.000000000000000E+00   0.000000000000000E+00
   0.000000000000000E+00   0.000000000000000E+00   0.000000000000000E+00
   0.000000000000000E+00   0.000000000000000E+00   0.000000000000000E+00
   0.000000000000000E+00   0.000000000000000E+00   0.000000000000000E+00
   0.000000000000000E+00   0.000000000000000E+00   0.000000000000000E+00
   0.000000000000000E+00   0.000000000000000E+00   0.000000000000000E+00
   0.000000000000000E+00   0.000000000000000E+00   0.000000000000000E+00
   0.000000000000000E+00   0.000000000000000E+00   0.000000000000000E+00
   0.000000000000000E+00   0.000000000000000E+00   0.000000000000000E+00
   0.000000000000000E+00   0.000000000000000E+00   0.000000000000000E+00
   0.000000000000000E+00   0.000000000000000E+00   0.000000000000000E+00
   0.000000000000000E+00   0.000000000000000E+00   0.000000000000000E+00
   0.000000000000000E+00   0.000000000000000E+00   0.000000000000000E+00
   0.000000000000000E+00   0.000000000000000E+00   0.000000000000000E+00
   0.000000000000000E+00   0.000000000000000E+00   0.000000000000000E+00
   0.000000000000000E+00   0.000000000000000E+00   0.000000000000000E+00
   0.000000000000000E+00   0.000000000000000E+00   0.000000000000000E+00
   0.000000000000000E+00   0.000000000000000E+00   0.000000000000000E+00
   0.000000000000000E+00   0.000000000000000E+00   0.000000000000000E+00
   0.000000000000000E+00   0.000000000000000E+00   0.000000000000000E+00
   0.000000000000000E+00   0.000000000000000E+00   0.000000000000000E+00
   0.000000000000000E+00   0.000000000000000E+00   0.000000000000000E+00
   0.000000000000000E+00   0.000000000000000E+00   0.000000000000000E+00
   0.000000000000000E+00   0.000000000000000E+00   0.000000000000000E+00
   0.000000000000000E+00   0.000000000000000E+00   0.000000000000000E+00
   0.000000000000000E+00   0.000000000000000E+00   0.000000000000000E+00
   0.000000000000000E+00   0.000000000000000E+00   0.000000000000000E+00
   0.000000000000000E+00   0.000000000000000E+00   0.000000000000000E+00
   0.000000000000000E+00   0.000000000000000E+00   0.000000000000000E+00
   0.000000000000000E+00   0.000000000000000E+00   0.000000000000000E+00
   0.000000000000000E+00   0.000000000000000E+00   0.000000000000000E+00
   0.000000000000000E+00   0.000000000000000E+00   0.000000000000000E+00
   0.000000000000000E+00   0.000000000000000E+00   0.000000000000000E+00
   0.000000000000000E+00   0.000000000000000E+00   0.000000000000000E+00
   0.000000000000000E+00   0.000000000000000E+00   0.000000000000000E+00
   0.000000000000000E+00   0.000000000000000E+00   0.000000000000000E+00
   0.000000000000000E+00   0.000000000000000E+00   0.000000000000000E+00
   0.000000000000000E+00   0.000000000000000E+00   0.000000000000000E+00
   0.000000000000000E+00   0.000000000000000E+00   0.000000000000000E+00
   0.000000000000000E+00   0.000000000000000E+00   0.000000000000000E+00
   0.000000000000000E+00   0.000000000000000E+00   0.000000000000000E+00
   0.000000000000000E+00   0.000000000000000E+00   0.000000000000000E+00
   0.000000000000000E+00   0.000000000000000E+00   0.000000000000000E+00
   0.000000000000000E+00   0.000000000000000E+00   0.000000000000000E+00
   0.000000000000000E+00   0.000000000000000E+00   0.000000000000000E+00
   0.000000000000000E+00   0.000000000000000E+00   0.000000000000000E+00
   0.000000000000000E+00   0.000000000000000E+00   0.000000000000000E+00
   0.000000000000000E+00   0.000000000000000E+00   0.000000000000000E+00
   0.000000000000000E+00   0.000000000000000E+00   0.000000000000000E+00
   0.000000000000000E+00   0.000000000000000E+00   0.000000000000000E+00
   0.000000000000000E+00   0.000000000000000E+00   0.000000000000000E+00
   0.000000000000000E+00   0.000000000000000E+00   0.000000000000000E+00
   0.000000000000000E+00   0.000000000000000E+00   0.000000000000000E+00
   0.000000000000000E+00   0.000000000000000E+00   0.000000000000000E+00
   0.000000000000000E+00   0.000000000000000E+00   0.000000000000000E+00
   0.000000000000000E+00   0.000000000000000E+00   0.000000000000000E+00
   0.000000000000000E+00   0.000000000000000E+00   0.000000000000000E+00
   0.000000000000000E+00   0.000000000000000E+00   0.000000000000000E+00
   0.000000000000000E+00   0.000000000000000E+00   0.000000000000000E+00
   0.000000000000000E+00
        </PP_GIPAW_WFS_AE>
        <PP_GIPAW_WFS_PS size="1525">
   1.018360449609199E-05   1.028596020650758E-05   1.038934460891656E-05
   1.049376804184538E-05   1.059924094772443E-05   1.070577387393226E-05
   1.081337747385034E-05   1.092206250792840E-05   1.103183984476052E-05
   1.114272046217195E-05   1.125471544831689E-05   1.136783600278738E-05
   1.148209343773320E-05   1.159749917899317E-05   1.171406476723766E-05
   1.183180185912278E-05   1.195072222845590E-05   1.207083776737316E-05
   1.219216048752865E-05   1.231470252129561E-05   1.243847612297965E-05
   1.256349367004418E-05   1.268976766434823E-05   1.281731073339659E-05
   1.294613563160255E-05   1.307625524156346E-05   1.320768257534885E-05
   1.334043077580179E-05   1.347451311785308E-05   1.360994300984881E-05
   1.374673399489117E-05   1.388489975219285E-05   1.402445409844486E-05
   1.416541098919828E-05   1.430778452025981E-05   1.445158892910140E-05
   1.459683859628396E-05   1.474354804689540E-05   1.489173195200327E-05
   1.504140513012174E-05   1.519258254869356E-05   1.534527932558679E-05
   1.549951073060657E-05   1.565529218702217E-05   1.581263927310928E-05
   1.597156772370788E-05   1.613209343179572E-05   1.629423245007764E-05
   1.645800099259084E-05   1.662341543632631E-05   1.679049232286656E-05
   1.695924836003972E-05   1.712970042359047E-05   1.730186555886752E-05
   1.747576098252818E-05   1.765140408426005E-05   1.782881242852000E-05
   1.800800375629065E-05   1.818899598685444E-05   1.837180721958562E-05
   1.855645573576019E-05   1.874296000038404E-05   1.893133866403940E-05
   1.912161056475007E-05   1.931379472986511E-05   1.950791037796163E-05
   1.970397692076663E-05   1.990201396509823E-05   2.010204131482640E-05
   2.030407897285329E-05   2.050814714311358E-05   2.071426623259483E-05
   2.092245685337834E-05   2.113273982470023E-05   2.134513617503340E-05
   2.155966714419051E-05   2.177635418544782E-05   2.199521896769068E-05
   2.221628337758034E-05   2.243956952174266E-05   2.266509972897882E-05
   2.289289655249823E-05   2.312298277217380E-05   2.335538139681997E-05
   2.359011566649360E-05   2.382720905481812E-05   2.406668527133076E-05
   2.430856826385354E-05   2.455288222088820E-05   2.479965157403491E-05
   2.504890100043557E-05   2.530065542524145E-05   2.555494002410582E-05
   2.581178022570147E-05   2.607120171426365E-05   2.633323043215845E-05
   2.659789258247711E-05   2.686521463165637E-05   2.713522331212511E-05
   2.740794562497757E-05   2.768340884267357E-05   2.796164051176571E-05
   2.824266845565409E-05   2.852652077736864E-05   2.881322586237950E-05
   2.910281238143552E-05   2.939530929343147E-05   2.969074584830377E-05
   2.998915158995572E-05   3.029055635921181E-05   3.059499029680183E-05
   3.090248384637493E-05   3.121306775754412E-05   3.152677308896118E-05
   3.184363121142258E-05   3.216367381100657E-05   3.248693289224181E-05
   3.281344078130786E-05   3.314323012926788E-05   3.347633391533370E-05
   3.381278545016382E-05   3.415261837919442E-05   3.449586668600396E-05
   3.484256469571169E-05   3.519274707840999E-05   3.554644885263163E-05
   3.590370538885147E-05   3.626455241302374E-05   3.662902601015447E-05
   3.699716262790996E-05   3.736899908026188E-05   3.774457255116851E-05
   3.812392059829313E-05   3.850708115675996E-05   3.889409254294759E-05
   3.928499345832075E-05   3.967982299330041E-05   4.007862063117280E-05
   4.048142625203805E-05   4.088828013679792E-05   4.129922297118398E-05
   4.171429584982644E-05   4.213354028036348E-05   4.255699818759200E-05
   4.298471191766031E-05   4.341672424230265E-05   4.385307836311640E-05
   4.429381791588243E-05   4.473898697492858E-05   4.518863005753710E-05
   4.564279212839652E-05   4.610151860409818E-05   4.656485535767782E-05
   4.703284872320307E-05   4.750554550040677E-05   4.798299295936706E-05
   4.846523884523442E-05   4.895233138300611E-05   4.944431928234893E-05
   4.994125174247013E-05   5.044317845703740E-05   5.095014961914825E-05
   5.146221592634942E-05   5.197942858570655E-05   5.250183931892516E-05
   5.302950036752260E-05   5.356246449805247E-05   5.410078500738130E-05
   5.464451572801822E-05   5.519371103349821E-05   5.574842584381973E-05
   5.630871563093650E-05   5.687463642430493E-05   5.744624481648724E-05
   5.802359796881037E-05   5.860675361708255E-05   5.919577007736677E-05
   5.979070625181244E-05   6.039162163454578E-05   6.099857631761908E-05
   6.161163099702020E-05   6.223084697874215E-05   6.285628618491369E-05
   6.348801115999173E-05   6.412608507701557E-05   6.477057174392471E-05
   6.542153560993936E-05   6.607904177200553E-05   6.674315598130478E-05
   6.741394464982954E-05   6.809147485702407E-05   6.877581435649292E-05
   6.946703158277594E-05   7.016519565819213E-05   7.087037639975177E-05
   7.158264432613821E-05   7.230207066475980E-05   7.302872735887283E-05
   7.376268707477593E-05   7.450402320907654E-05   7.525280989603095E-05
   7.600912201495766E-05   7.677303519772535E-05   7.754462583631631E-05
   7.832397109046558E-05   7.911114889537724E-05   7.990623796951767E-05
   8.070931782248774E-05   8.152046876297382E-05   8.233977190677874E-05
   8.316730918493345E-05   8.400316335189014E-05   8.484741799379799E-05
   8.570015753686171E-05   8.656146725578426E-05   8.743143328229451E-05
   8.831014261376055E-05   8.919768312188945E-05   9.009414356151465E-05
   9.099961357947148E-05   9.191418372356193E-05   9.283794545160956E-05
   9.377099114060549E-05   9.471341409594595E-05   9.566530856076330E-05
   9.662676972535030E-05   9.759789373667925E-05   9.857877770801683E-05
   9.956951972863548E-05   1.005702188736227E-04   1.015809752137884E-04
   1.026018898256726E-04   1.036330648016524E-04   1.046746032601522E-04
   1.057266093559554E-04   1.067891882906197E-04   1.078624463229976E-04
   1.089464907798630E-04   1.100414300666429E-04   1.111473736782593E-04
   1.122644322100780E-04   1.133927173689687E-04   1.145323419844760E-04
   1.156834200201019E-04   1.168460665847029E-04   1.180203979440010E-04
   1.192065315322101E-04   1.204045859637802E-04   1.216146810452585E-04
   1.228369377872704E-04   1.240714784166208E-04   1.253184263885170E-04
   1.265779063989145E-04   1.278500443969869E-04   1.291349675977205E-04
   1.304328044946367E-04   1.317436848726406E-04   1.330677398210010E-04
   1.344051017464589E-04   1.357559043864684E-04   1.371202828225706E-04
   1.384983734939019E-04   1.398903142108388E-04   1.412962441687788E-04
   1.427163039620600E-04   1.441506355980212E-04   1.455993825112024E-04
   1.470626895776892E-04   1.485407031296001E-04   1.500335709697205E-04
   1.515414423862829E-04   1.530644681678963E-04   1.546028006186250E-04
   1.561565935732196E-04   1.577260024125010E-04   1.593111840788985E-04
   1.609122970921445E-04   1.625295015651270E-04   1.641629592199008E-04
   1.658128334038603E-04   1.674792891060747E-04   1.691624929737872E-04
   1.708626133290806E-04   1.725798201857091E-04   1.743142852661004E-04
   1.760661820185286E-04   1.778356856344596E-04   1.796229730660700E-04
   1.814282230439429E-04   1.832516160949424E-04   1.850933345602652E-04
   1.869535626136766E-04   1.888324862799279E-04   1.907302934533592E-04
   1.926471739166889E-04   1.945833193599939E-04   1.965389233998776E-04
   1.985141815988338E-04   2.005092914848018E-04   2.025244525709209E-04
   2.045598663754817E-04   2.066157364420791E-04   2.086922683599669E-04
   2.107896697846174E-04   2.129081504584882E-04   2.150479222319966E-04
   2.172091990847049E-04   2.193921971467197E-04   2.215971347203060E-04
   2.238242323017170E-04   2.260737126032454E-04   2.283458005754959E-04
   2.306407234298795E-04   2.329587106613367E-04   2.352999940712879E-04
   2.376648077908137E-04   2.400533883040697E-04   2.424659744719348E-04
   2.449028075558993E-04   2.473641312421916E-04   2.498501916661477E-04
   2.523612374368259E-04   2.548975196618690E-04   2.574592919726155E-04
   2.600468105494639E-04   2.626603341474929E-04   2.653001241223376E-04
   2.679664444563253E-04   2.706595617848766E-04   2.733797454231685E-04
   2.761272673930692E-04   2.789024024503388E-04   2.817054281121094E-04
   2.845366246846365E-04   2.873962752913311E-04   2.902846659010741E-04
   2.932020853568143E-04   2.961488254044543E-04   2.991251807220266E-04
   3.021314489491637E-04   3.051679307168632E-04   3.082349296775523E-04
   3.113327525354560E-04   3.144617090772682E-04   3.176221122031332E-04
   3.208142779579372E-04   3.240385255629146E-04   3.272951774475727E-04
   3.305845592819358E-04   3.339070000091160E-04   3.372628318782085E-04
   3.406523904775190E-04   3.440760147681252E-04   3.475340471177751E-04
   3.510268333351257E-04   3.545547227043287E-04   3.581180680199589E-04
   3.617172256222979E-04   3.653525554329701E-04   3.690244209909380E-04
   3.727331894888594E-04   3.764792318098097E-04   3.802629225643729E-04
   3.840846401281064E-04   3.879447666793816E-04   3.918436882376043E-04
   3.957817947018218E-04   3.997594798897158E-04   4.037771415769870E-04
   4.078351815371370E-04   4.119340055816508E-04   4.160740236005795E-04
   4.202556496035353E-04   4.244793017610963E-04   4.287454024466279E-04
   4.330543782785252E-04   4.374066601628781E-04   4.418026833365685E-04
   4.462428874107981E-04   4.507277164150531E-04   4.552576188415150E-04
   4.598330476899134E-04   4.644544605128312E-04   4.691223194614678E-04
   4.738370913318577E-04   4.785992476115573E-04   4.834092645267991E-04
   4.882676230901223E-04   4.931748091484782E-04   4.981313134318244E-04
   5.031376316022007E-04   5.081942643033069E-04   5.133017172105728E-04
   5.184605010817321E-04   5.236711318079075E-04   5.289341304652079E-04
   5.342500233668420E-04   5.396193421157619E-04   5.450426236578288E-04
   5.505204103355180E-04   5.560532499421632E-04   5.616416957767428E-04
   5.672863066992232E-04   5.729876471864516E-04   5.787462873886165E-04
   5.845628031862713E-04   5.904377762479359E-04   5.963717940882724E-04
   6.023654501268503E-04   6.084193437474991E-04   6.145340803582598E-04
   6.207102714519385E-04   6.269485346672674E-04   6.332494938506855E-04
   6.396137791187339E-04   6.460420269210845E-04   6.525348801041974E-04
   6.590929879756208E-04   6.657170063689399E-04   6.724075977093748E-04
   6.791654310800390E-04   6.859911822888658E-04   6.928855339362058E-04
   6.998491754831058E-04   7.068828033202746E-04   7.139871208377402E-04
   7.211628384952082E-04   7.284106738931289E-04   7.357313518444778E-04
   7.431256044472595E-04   7.505941711577394E-04   7.581377988644118E-04
   7.657572419627116E-04   7.734532624304819E-04   7.812266299041931E-04
   7.890781217559345E-04   7.970085231711748E-04   8.050186272273140E-04
   8.131092349730139E-04   8.212811555083350E-04   8.295352060656746E-04
   8.378722120915232E-04   8.462930073290391E-04   8.547984339014558E-04
   8.633893423963287E-04   8.720665919506276E-04   8.808310503366875E-04
   8.896835940490217E-04   8.986251083920086E-04   9.076564875684630E-04
   9.167786347690943E-04   9.259924622628719E-04   9.352988914882889E-04
   9.446988531455534E-04   9.541932872897022E-04   9.637831434246541E-04
   9.734693805982084E-04   9.832529674979999E-04   9.931348825484168E-04
   1.003116114008498E-03   1.013197660070810E-03   1.023380528961325E-03
   1.033665739040301E-03   1.044054318904173E-03   1.054547307488482E-03
   1.065145754171822E-03   1.075850718880848E-03   1.086663272196334E-03
   1.097584495460300E-03   1.108615480884218E-03   1.119757331658304E-03
   1.131011162061916E-03   1.142378097575053E-03   1.153859274990990E-03
   1.165455842530030E-03   1.177168959954425E-03   1.188999798684426E-03
   1.200949541915522E-03   1.213019384736848E-03   1.225210534250792E-03
   1.237524209693804E-03   1.249961642558421E-03   1.262524076716516E-03
   1.275212768543799E-03   1.288028987045561E-03   1.300974013983689E-03
   1.314049144004962E-03   1.327255684770632E-03   1.340594957087324E-03
   1.354068295039232E-03   1.367677046121674E-03   1.381422571375966E-03
   1.395306245525676E-03   1.409329457114231E-03   1.423493608643933E-03
   1.437800116716349E-03   1.452250412174141E-03   1.466845940244311E-03
   1.481588160682888E-03   1.496478547921078E-03   1.511518591212886E-03
   1.526709794784226E-03   1.542053677983533E-03   1.557551775433892E-03
   1.573205637186701E-03   1.589016828876887E-03   1.604986931879679E-03
   1.621117543468965E-03   1.637410276977247E-03   1.653866761957215E-03
   1.670488644344930E-03   1.687277586624672E-03   1.704235267995445E-03
   1.721363384539156E-03   1.738663649390501E-03   1.756137792908550E-03
   1.773787562850078E-03   1.791614724544630E-03   1.809621061071365E-03
   1.827808373437674E-03   1.846178480759613E-03   1.864733220444142E-03
   1.883474448373207E-03   1.902404039089698E-03   1.921523885985249E-03
   1.940835901489969E-03   1.960342017264069E-03   1.980044184391423E-03
   1.999944373575091E-03   2.020044575334822E-03   2.040346800206528E-03
   2.060853078943804E-03   2.081565462721460E-03   2.102486023341117E-03
   2.123616853438883E-03   2.144960066695126E-03   2.166517798046355E-03
   2.188292203899268E-03   2.210285462346939E-03   2.232499773387205E-03
   2.254937359143249E-03   2.277600464086427E-03   2.300491355261345E-03
   2.323612322513197E-03   2.346965678717426E-03   2.370553760011687E-03
   2.394378926030179E-03   2.418443560140328E-03   2.442750069681881E-03
   2.467300886208402E-03   2.492098465731230E-03   2.517145288965901E-03
   2.542443861581061E-03   2.567996714449909E-03   2.593806403904180E-03
   2.619875511990703E-03   2.646206646730557E-03   2.672802442380858E-03
   2.699665559699194E-03   2.726798686210745E-03   2.754204536478108E-03
   2.781885852373858E-03   2.809845403355889E-03   2.838085986745518E-03
   2.866610428008440E-03   2.895421581038516E-03   2.924522328444452E-03
   2.953915581839381E-03   2.983604282133393E-03   3.013591399829036E-03
   3.043879935319801E-03   3.074472919191681E-03   3.105373412527746E-03
   3.136584507215848E-03   3.168109326259433E-03   3.199951024091544E-03
   3.232112786891990E-03   3.264597832907744E-03   3.297409412776615E-03
   3.330550809854223E-03   3.364025340544276E-03   3.397836354632232E-03
   3.431987235622349E-03   3.466481401078182E-03   3.501322302966551E-03
   3.536513428004994E-03   3.572058298012788E-03   3.607960470265548E-03
   3.644223537853440E-03   3.680851130043046E-03   3.717846912642938E-03
   3.755214588372973E-03   3.792957897237370E-03   3.831080616901605E-03
   3.869586563073152E-03   3.908479589886109E-03   3.947763590289787E-03
   3.987442496441260E-03   4.027520280101926E-03   4.068000953038143E-03
   4.108888567425976E-03   4.150187216260085E-03   4.191901033766811E-03
   4.234034195821482E-03   4.276590920370032E-03   4.319575467854929E-03
   4.362992141645495E-03   4.406845288472619E-03   4.451139298867974E-03
   4.495878607607734E-03   4.541067694160866E-03   4.586711083142011E-03
   4.632813344769072E-03   4.679379095325497E-03   4.726412997627329E-03
   4.773919761495063E-03   4.821904144230400E-03   4.870370951097908E-03
   4.919325035811645E-03   4.968771301026842E-03   5.018714698836661E-03
   5.069160231274085E-03   5.120112950819030E-03   5.171577960910675E-03
   5.223560416465134E-03   5.276065524398487E-03   5.329098544155252E-03
   5.382664788242329E-03   5.436769622768492E-03   5.491418467989518E-03
   5.546616798858971E-03   5.602370145584714E-03   5.658684094191242E-03
   5.715564287087874E-03   5.773016423642861E-03   5.831046260763530E-03
   5.889659613482415E-03   5.948862355549615E-03   6.008660420031295E-03
   6.069059799914458E-03   6.130066548718069E-03   6.191686781110612E-03
   6.253926673534086E-03   6.316792464834613E-03   6.380290456899660E-03
   6.444427015301945E-03   6.509208569950175E-03   6.574641615746615E-03
   6.640732713251608E-03   6.707488489355136E-03   6.774915637955472E-03
   6.843020920645009E-03   6.911811167403388E-03   6.981293277297938E-03
   7.051474219191619E-03   7.122361032458420E-03   7.193960827706431E-03
   7.266280787508577E-03   7.339328167141197E-03   7.413110295330479E-03
   7.487634575006868E-03   7.562908484067570E-03   7.638939576147249E-03
   7.715735481396930E-03   7.793303907271351E-03   7.871652639324706E-03
   7.950789542015042E-03   8.030722559517275E-03   8.111459716544993E-03
   8.193009119181185E-03   8.275378955717918E-03   8.358577497505158E-03
   8.442613099808790E-03   8.527494202677968E-03   8.613229331821938E-03
   8.699827099496420E-03   8.787296205399631E-03   8.875645437578187E-03
   8.964883673342859E-03   9.055019880194418E-03   9.146063116759707E-03
   9.238022533737910E-03   9.330907374857362E-03   9.424726977842907E-03
   9.519490775393918E-03   9.615208296173241E-03   9.711889165807029E-03
   9.809543107895828E-03   9.908179945036838E-03   1.000780959985761E-02
   1.010844209606135E-02   1.021008755948394E-02   1.031275621916283E-02
   1.041645840841791E-02   1.052120456594467E-02   1.062700523691966E-02
   1.073387107411855E-02   1.084181283904674E-02   1.095084140308300E-02
   1.106096774863605E-02   1.117220297031436E-02   1.128455827610944E-02
   1.139804498859261E-02   1.151267454612558E-02   1.162845850408507E-02
   1.174540853610149E-02   1.186353643531200E-02   1.198285411562822E-02
   1.210337361301857E-02   1.222510708680575E-02   1.234806682097922E-02
   1.247226522552328E-02   1.259771483776073E-02   1.272442832371229E-02
   1.285241847947226E-02   1.298169823260040E-02   1.311228064353047E-02
   1.324417890699555E-02   1.337740635347037E-02   1.351197645063104E-02
   1.364790280483229E-02   1.378519916260270E-02   1.392387941215787E-02
   1.406395758493207E-02   1.420544785712860E-02   1.434836455128903E-02
   1.449272213788176E-02   1.463853523691015E-02   1.478581861954042E-02
   1.493458720974990E-02   1.508485608599560E-02   1.523664048290372E-02
   1.538995579298019E-02   1.554481756834290E-02   1.570124152247562E-02
   1.585924353200417E-02   1.601883963849511E-02   1.618004605027748E-02
   1.634287914428772E-02   1.650735546793835E-02   1.667349174101067E-02
   1.684130485757216E-02   1.701081188791857E-02   1.718203008054143E-02
   1.735497686412138E-02   1.752966984954759E-02   1.770612683196399E-02
   1.788436579284250E-02   1.806440490208394E-02   1.824626252014692E-02
   1.842995720020548E-02   1.861550769033568E-02   1.880293293573172E-02
   1.899225208095244E-02   1.918348447219827E-02   1.937664965961957E-02
   1.957176739965663E-02   1.976885765741214E-02   1.996794060905667E-02
   2.016903664426767E-02   2.037216636870273E-02   2.057735060650764E-02
   2.078461040286011E-02   2.099396702654955E-02   2.120544197259377E-02
   2.141905696489325E-02   2.163483395892367E-02   2.185279514446766E-02
   2.207296294838618E-02   2.229536003743059E-02   2.252000932109599E-02
   2.274693395451697E-02   2.297615734140613E-02   2.320770313703671E-02
   2.344159525126992E-02   2.367785785162796E-02   2.391651536641372E-02
   2.415759248787796E-02   2.440111417543504E-02   2.464710565892823E-02
   2.489559244194552E-02   2.514660030518718E-02   2.540015530988584E-02
   2.565628380128053E-02   2.591501241214560E-02   2.617636806637572E-02
   2.644037798262818E-02   2.670706967802391E-02   2.697647097190800E-02
   2.724860998967161E-02   2.752351516663599E-02   2.780121525200065E-02
   2.808173931285643E-02   2.836511673826532E-02   2.865137724340838E-02
   2.894055087380324E-02   2.923266800959288E-02   2.952775936990712E-02
   2.982585601729851E-02   3.012698936225439E-02   3.043119116778684E-02
   3.073849355410211E-02   3.104892900335175E-02   3.136253036446698E-02
   3.167933085807817E-02   3.199936408152183E-02   3.232266401393689E-02
   3.264926502145221E-02   3.297920186246787E-02   3.331250969303208E-02
   3.364922407231622E-02   3.398938096819033E-02   3.433301676290144E-02
   3.468016825885683E-02   3.503087268451575E-02   3.538516770039103E-02
   3.574309140516424E-02   3.610468234191639E-02   3.646997950447770E-02
   3.683902234389898E-02   3.721185077504750E-02   3.758850518333101E-02
   3.796902643155222E-02   3.835345586689826E-02   3.874183532806706E-02
   3.913420715253513E-02   3.953061418397014E-02   3.993109977979142E-02
   4.033570781888298E-02   4.074448270946227E-02   4.115746939710881E-02
   4.157471337295744E-02   4.199626068205916E-02   4.242215793191517E-02
   4.285245230118800E-02   4.328719154859413E-02   4.372642402198357E-02
   4.417019866761054E-02   4.461856503960049E-02   4.507157330961914E-02
   4.552927427674829E-02   4.599171937757378E-02   4.645896069649196E-02
   4.693105097623994E-02   4.740804362865550E-02   4.788999274567336E-02
   4.837695311056368E-02   4.886898020941948E-02   4.936613024289990E-02
   4.986846013823588E-02   5.037602756150580E-02   5.088889093018794E-02
   5.140710942599772E-02   5.193074300801742E-02   5.245985242612639E-02
   5.299449923473971E-02   5.353474580686467E-02   5.408065534848304E-02
   5.463229191326808E-02   5.518972041764639E-02   5.575300665621353E-02
   5.632221731751350E-02   5.689742000019220E-02   5.747868322953534E-02
   5.806607647440183E-02   5.865967016456351E-02   5.925953570846253E-02
   5.986574551139873E-02   6.047837299415863E-02   6.109749261209869E-02
   6.172317987469640E-02   6.235551136558089E-02   6.299456476305904E-02
   6.364041886114918E-02   6.429315359113788E-02   6.495285004367472E-02
   6.561959049142033E-02   6.629345841226400E-02   6.697453851312662E-02
   6.766291675436646E-02   6.835868037480419E-02   6.906191791738719E-02
   6.977271925550881E-02   7.049117562000388E-02   7.121737962683898E-02
   7.195142530551794E-02   7.269340812822345E-02   7.344342503971620E-02
   7.420157448801336E-02   7.496795645587015E-02   7.574267249308654E-02
   7.652582574966431E-02   7.731752100983884E-02   7.811786472701167E-02
   7.892696505961026E-02   7.974493190790162E-02   8.057187695178808E-02
   8.140791368961502E-02   8.225315747801841E-02   8.310772557284470E-02
   8.397173717117346E-02   8.484531345447573E-02   8.572857763294137E-02
   8.662165499100972E-02   8.752467293413983E-02   8.843776103685505E-02
   8.936105109210200E-02   9.029467716196046E-02   9.123877562974519E-02
   9.219348525354022E-02   9.315894722120795E-02   9.413530520691635E-02
   9.512270542922922E-02   9.612129671080449E-02   9.713123053974974E-02
   9.815266113268085E-02   9.918574549953602E-02   1.002306435101955E-01
   1.012875179629599E-01   1.023565346549406E-01   1.034378624544200E-01
   1.045316733752366E-01   1.056381426532547E-01   1.067574488249799E-01
   1.078897738083799E-01   1.090353029859776E-01   1.101942252902780E-01
   1.113667332915991E-01   1.125530232883734E-01   1.137532953999910E-01
   1.149677536622558E-01   1.161966061255298E-01   1.174400649556393E-01
   1.186983465376218E-01   1.199716715823918E-01   1.212602652364062E-01
   1.225643571944135E-01   1.238841818153681E-01   1.252199782415990E-01
   1.265719905213189E-01   1.279404677345632E-01   1.293256641226505E-01
   1.307278392212572E-01   1.321472579972013E-01   1.335841909890293E-01
   1.350389144515058E-01   1.365117105041020E-01   1.380028672835859E-01
   1.395126791008116E-01   1.410414466018128E-01   1.425894769333019E-01
   1.441570839126779E-01   1.457445882026484E-01   1.473523174905690E-01
   1.489806066726060E-01   1.506297980428240E-01   1.523002414873065E-01
   1.539922946834086E-01   1.557063233042463E-01   1.574427012285219E-01
   1.592018107557856E-01   1.609840428272277E-01   1.627897972520967E-01
   1.646194829398322E-01   1.664735181380015E-01   1.683523306761168E-01
   1.702563582154136E-01   1.721860485046580E-01   1.741418596420461E-01
   1.761242603432526E-01   1.781337302156719E-01   1.801707600388892E-01
   1.822358520514075E-01   1.843295202436413E-01   1.864522906571756E-01
   1.886047016902732E-01   1.907873044095978E-01   1.930006628680964E-01
   1.952453544289697E-01   1.975219700956327E-01   1.998311148475417E-01
   2.021734079817424E-01   2.045494834599521E-01   2.069599902609694E-01
   2.094055927381574E-01   2.118869709817126E-01   2.144048211853891E-01
   2.169598560172961E-01   2.195528049943405E-01   2.221844148598315E-01
   2.248554499636967E-01   2.275666926447036E-01   2.303189436140024E-01
   2.331130223392356E-01   2.359497674283701E-01   2.388300370123258E-01
   2.417547091253724E-01   2.447246820821657E-01   2.477408748501781E-01
   2.508042274161639E-01   2.539157011451632E-01   2.570762791304112E-01
   2.602869665323708E-01   2.635487909049410E-01   2.668628025067249E-01
   2.702300745950498E-01   2.736517037002409E-01   2.771288098774287E-01
   2.806625369329478E-01   2.842540526221413E-01   2.879045488151238E-01
   2.916152416267806E-01   2.953873715069852E-01   2.992222032867069E-01
   3.031210261753424E-01   3.070851537042564E-01   3.111159236111384E-01
   3.152146976593866E-01   3.193828613863160E-01   3.236218237735340E-01
   3.279330168323720E-01   3.323178950967607E-01   3.367779350154320E-01
   3.413146342347743E-01   3.459295107631188E-01   3.506241020066336E-01
   3.553999636663896E-01   3.602586684855263E-01   3.652018048347824E-01
   3.702309751239717E-01   3.753477940262870E-01   3.805538865015973E-01
   3.858508856041591E-01   3.912404300594325E-01   3.967241615939349E-01
   4.023037220013138E-01   4.079807499270761E-01   4.137568773536669E-01
   4.196337257668850E-01   4.256129019839274E-01   4.316959936226971E-01
   4.378845641914303E-01   4.441801477771435E-01   4.505842433109594E-01
   4.570983083880024E-01   4.637237526193222E-01   4.704619304931896E-01
   4.773141337231660E-01   4.842815830605906E-01   4.913654195495781E-01
   4.985666952033311E-01   5.058863630815325E-01   5.133252667498930E-01
   5.208841291045676E-01   5.285635405461907E-01   5.363639464907701E-01
   5.442856342076414E-01   5.523287189781707E-01   5.604931295729946E-01
   5.687785930502787E-01   5.771846188829012E-01   5.857104824285835E-01
   5.943552077639377E-01   6.031175499111621E-01   6.119959764947634E-01
   6.209886488752664E-01   6.300934028174081E-01   6.393077287618349E-01
   6.486287517818488E-01   6.580532113202804E-01   6.675774408160875E-01
   6.771973473457558E-01   6.869083914209928E-01   6.967055671013902E-01
   7.065833825987028E-01   7.165358415678981E-01   7.265564252990605E-01
   7.366380760433526E-01   7.467731817252683E-01   7.569535623120902E-01
   7.671704581293698E-01   7.774145204280537E-01   7.876758045240151E-01
   7.979437658438231E-01   8.082072592209194E-01   8.184545417933982E-01
   8.286732798576458E-01   8.388505600304497E-01   8.489729050651331E-01
   8.590262946540241E-01   8.689961915293851E-01   8.788675731470684E-01
   8.886249692008836E-01   8.982525051703361E-01   9.077339520494381E-01
   9.170527823392429E-01   9.261922323112703E-01   9.351353704630246E-01
   9.438651719902925E-01   9.523645989943316E-01   9.606166860258925E-01
   9.686046304432692E-01   9.763118869294957E-01   9.837222653759853E-01
   9.908200311984626E-01   9.975900070083112E-01   1.004017674421320E+00
   1.010089274649482E+00   1.015791906393613E+00   1.021113619439129E+00
   1.026043502258596E+00   1.030571761847489E+00   1.034689793968776E+00
   1.038390241962782E+00   1.041667042296903E+00   1.044515455090769E+00
   1.046932077962724E+00   1.048914841709502E+00   1.050462986559757E+00
   1.051577018041569E+00   1.052258641882924E+00   1.052510677832339E+00
   1.052336952856046E+00   1.051742174851832E+00   1.050731788833952E+00
   1.049311818507269E+00   1.047488697284281E+00   1.045269094131827E+00
   1.042659741194798E+00   1.039667271965985E+00   1.036298080891522E+00
   1.032558217760958E+00   1.028453333072416E+00   1.023988693830955E+00
   1.019169292976142E+00   1.014000072676527E+00   1.008486193746639E+00
   1.002633114282593E+00   9.964465897678536E-01   9.899326667676255E-01
   9.830976761519207E-01   9.759482258648849E-01   9.684911932580959E-01
   9.607337170053692E-01   9.526831886162681E-01   9.443472435649537E-01
   9.357337520503719E-01   9.268508094030345E-01   9.177067261528357E-01
   9.083100177715514E-01   8.986693941028547E-01   8.887937484919325E-01
   8.786921466261011E-01   8.683738150972465E-01   8.578481296964688E-01
   8.471246034510297E-01   8.362128744136410E-01   8.251226932142317E-01
   8.138639103847557E-01   8.024464634682337E-01   7.908803639241809E-01
   7.791756838437995E-01   7.673425424898702E-01   7.553910926782144E-01
   7.433315070196200E-01   7.311739640434756E-01   7.189286342272853E-01
   7.066056659589423E-01   6.942151714615121E-01   6.817672127134499E-01
   6.692717874001742E-01   6.567388149358889E-01   6.441781225973103E-01
   6.315994318134466E-01   6.190123446577468E-01   6.064263305906200E-01
   5.938507135015242E-01   5.812946591004062E-01   5.687671627082413E-01
   5.562770374956999E-01   5.438329032175422E-01   5.314431754882564E-01
   5.191160556416121E-01   5.068595212134239E-01   4.946813170828017E-01
   4.825889473025712E-01   4.705896676445993E-01   4.586904788804556E-01
   4.468981208122594E-01   4.352190670628604E-01   4.236595206287427E-01
   4.122254101933699E-01   4.009223871931537E-01   3.897558236229607E-01
   3.787308105631105E-01   3.678521574052899E-01   3.571243917506999E-01
   3.465517599501972E-01   3.361382282531309E-01   3.258874845291281E-01
   3.158029405251756E-01   3.058877346190492E-01   2.961447350293970E-01
   2.865765434426041E-01   2.771854990169066E-01   2.679736827250609E-01
   2.589429219981579E-01   2.500947956348600E-01   2.414306389423869E-01
   2.329515490779044E-01   2.246583905615553E-01   2.165518009351212E-01
   2.086321965431771E-01   2.008997784165237E-01   1.933545382406196E-01
   1.859962643945781E-01   1.788245480490667E-01   1.718387893140125E-01
   1.650382034294067E-01   1.584218269946182E-01   1.519885242334806E-01
   1.457369932939502E-01   1.396657725823500E-01   1.337732471330858E-01
   1.280576550152592E-01   1.225170937777899E-01   1.171495269345277E-01
   1.119527904903714E-01   1.069245995086664E-01   1.020625547191193E-01
   9.736414916420165E-02   9.282677488052327E-02   8.844772960999639E-02
   8.422422353380227E-02   8.015338602028417E-02   7.623227237595823E-02
   7.245787058690185E-02   6.882710803593861E-02   6.533685817934379E-02
   6.198394716532270E-02   5.876516037533743E-02   5.567724886857799E-02
   5.271693570955848E-02   4.988092215904182E-02   4.716589370930935E-02
   4.456852594621330E-02   4.208549022246830E-02   3.971345912919352E-02
   3.744911175569857E-02   3.528913873076559E-02   3.323024704201685E-02
   3.126916463315690E-02   2.940264478171443E-02   2.762747026217468E-02
   2.594045730092490E-02   2.433845933012847E-02   2.281837054747545E-02
   2.137712928778937E-02   2.001172121083751E-02   1.871918230760657E-02
   1.749660172500673E-02   1.634112440671773E-02   1.524995354594438E-02
   1.422035284440126E-02   1.324964857104398E-02   1.233523141398164E-02
   1.147455811963361E-02   1.066515291446363E-02   9.904608706406364E-03
   9.190588065236599E-03   8.520823983439566E-03   7.893120421452201E-03
   7.305352643307185E-03   6.755467350605907E-03   6.241482624294957E-03
   5.761487684882271E-03   5.313642482502608E-03   4.896177128653664E-03
   4.507391181523420E-03   4.145652796677129E-03   3.809397754535043E-03
   3.497128375612216E-03   3.207412333966214E-03   2.938881378752201E-03
   2.690229973252007E-03   2.460213860246649E-03   2.247648562152381E-03
   2.051407823942550E-03   1.870422006531843E-03   1.703676437991491E-03
   1.550209729689721E-03   1.409112064209744E-03   1.279523461661944E-03
   1.160632030776802E-03   1.051672210937859E-03   9.519230110784743E-04
   8.607062511210247E-04   7.773848113805364E-04   7.013608950861093E-04
   6.320743088937825E-04   5.690007659754108E-04   5.116502159722458E-04
   4.595652058023458E-04   4.123192750111614E-04   3.695153890583671E-04
   3.307844136452985E-04   2.957836329102004E-04   2.641953140573089E-04
   2.357253207448940E-04   2.101017773415661E-04   1.870737859743766E-04
   1.664101981419900E-04   1.478984425575766E-04   1.313434108259625E-04
   1.165664025559689E-04   1.034041315711099E-04   9.170779502105629E-05
   8.134220742583728E-05   7.218500202085674E-05   6.412590223316016E-05
   5.706606673217962E-05   5.091751229113983E-05   4.560261970510029E-05
   4.105372928359691E-05   3.721283402623869E-05   3.403138056818753E-05
   3.147019043596579E-05   2.949951719053944E-05   2.809925878885194E-05
   2.725934913519870E-05   2.698035853046655E-05   2.727433982385872E-05
   2.816596585882847E-05   2.969401469773786E-05   3.191327263054399E-05
   0.000000000000000E+00   0.000000000000000E+00   0.000000000000000E+00
   0.000000000000000E+00   0.000000000000000E+00   0.000000000000000E+00
   0.000000000000000E+00   0.000000000000000E+00   0.000000000000000E+00
   0.000000000000000E+00   0.000000000000000E+00   0.000000000000000E+00
   0.000000000000000E+00   0.000000000000000E+00   0.000000000000000E+00
   0.000000000000000E+00   0.000000000000000E+00   0.000000000000000E+00
   0.000000000000000E+00   0.000000000000000E+00   0.000000000000000E+00
   0.000000000000000E+00   0.000000000000000E+00   0.000000000000000E+00
   0.000000000000000E+00   0.000000000000000E+00   0.000000000000000E+00
   0.000000000000000E+00   0.000000000000000E+00   0.000000000000000E+00
   0.000000000000000E+00   0.000000000000000E+00   0.000000000000000E+00
   0.000000000000000E+00   0.000000000000000E+00   0.000000000000000E+00
   0.000000000000000E+00   0.000000000000000E+00   0.000000000000000E+00
   0.000000000000000E+00   0.000000000000000E+00   0.000000000000000E+00
   0.000000000000000E+00   0.000000000000000E+00   0.000000000000000E+00
   0.000000000000000E+00   0.000000000000000E+00   0.000000000000000E+00
   0.000000000000000E+00   0.000000000000000E+00   0.000000000000000E+00
   0.000000000000000E+00   0.000000000000000E+00   0.000000000000000E+00
   0.000000000000000E+00   0.000000000000000E+00   0.000000000000000E+00
   0.000000000000000E+00   0.000000000000000E+00   0.000000000000000E+00
   0.000000000000000E+00   0.000000000000000E+00   0.000000000000000E+00
   0.000000000000000E+00   0.000000000000000E+00   0.000000000000000E+00
   0.000000000000000E+00   0.000000000000000E+00   0.000000000000000E+00
   0.000000000000000E+00   0.000000000000000E+00   0.000000000000000E+00
   0.000000000000000E+00   0.000000000000000E+00   0.000000000000000E+00
   0.000000000000000E+00   0.000000000000000E+00   0.000000000000000E+00
   0.000000000000000E+00   0.000000000000000E+00   0.000000000000000E+00
   0.000000000000000E+00   0.000000000000000E+00   0.000000000000000E+00
   0.000000000000000E+00   0.000000000000000E+00   0.000000000000000E+00
   0.000000000000000E+00   0.000000000000000E+00   0.000000000000000E+00
   0.000000000000000E+00   0.000000000000000E+00   0.000000000000000E+00
   0.000000000000000E+00   0.000000000000000E+00   0.000000000000000E+00
   0.000000000000000E+00   0.000000000000000E+00   0.000000000000000E+00
   0.000000000000000E+00   0.000000000000000E+00   0.000000000000000E+00
   0.000000000000000E+00   0.000000000000000E+00   0.000000000000000E+00
   0.000000000000000E+00   0.000000000000000E+00   0.000000000000000E+00
   0.000000000000000E+00   0.000000000000000E+00   0.000000000000000E+00
   0.000000000000000E+00   0.000000000000000E+00   0.000000000000000E+00
   0.000000000000000E+00   0.000000000000000E+00   0.000000000000000E+00
   0.000000000000000E+00   0.000000000000000E+00   0.000000000000000E+00
   0.000000000000000E+00   0.000000000000000E+00   0.000000000000000E+00
   0.000000000000000E+00   0.000000000000000E+00   0.000000000000000E+00
   0.000000000000000E+00   0.000000000000000E+00   0.000000000000000E+00
   0.000000000000000E+00   0.000000000000000E+00   0.000000000000000E+00
   0.000000000000000E+00   0.000000000000000E+00   0.000000000000000E+00
   0.000000000000000E+00   0.000000000000000E+00   0.000000000000000E+00
   0.000000000000000E+00   0.000000000000000E+00   0.000000000000000E+00
   0.000000000000000E+00   0.000000000000000E+00   0.000000000000000E+00
   0.000000000000000E+00   0.000000000000000E+00   0.000000000000000E+00
   0.000000000000000E+00   0.000000000000000E+00   0.000000000000000E+00
   0.000000000000000E+00   0.000000000000000E+00   0.000000000000000E+00
   0.000000000000000E+00   0.000000000000000E+00   0.000000000000000E+00
   0.000000000000000E+00   0.000000000000000E+00   0.000000000000000E+00
   0.000000000000000E+00   0.000000000000000E+00   0.000000000000000E+00
   0.000000000000000E+00   0.000000000000000E+00   0.000000000000000E+00
   0.000000000000000E+00   0.000000000000000E+00   0.000000000000000E+00
   0.000000000000000E+00   0.000000000000000E+00   0.000000000000000E+00
   0.000000000000000E+00   0.000000000000000E+00   0.000000000000000E+00
   0.000000000000000E+00   0.000000000000000E+00   0.000000000000000E+00
   0.000000000000000E+00   0.000000000000000E+00   0.000000000000000E+00
   0.000000000000000E+00   0.000000000000000E+00   0.000000000000000E+00
   0.000000000000000E+00   0.000000000000000E+00   0.000000000000000E+00
   0.000000000000000E+00   0.000000000000000E+00   0.000000000000000E+00
   0.000000000000000E+00
        </PP_GIPAW_WFS_PS>
      </PP_GIPAW_ORBITAL.1>
      <PP_GIPAW_ORBITAL.2 index="2" label="3P" l="1" cutoff_radius="2.00000000000000" ultrasoft_cutoff_radius="2.00000000000000">
        <PP_GIPAW_WFS_AE size="1525">
   5.693206552512945E-08   5.788686735839389E-08   5.885768207530121E-08
   5.984477822628122E-08   6.084902968330151E-08   6.187199407687322E-08
   6.291365638925265E-08   6.397440159644505E-08   6.505455510535834E-08
   6.615444834363905E-08   6.727441886109881E-08   6.841481043938783E-08
   6.957597320031176E-08   7.075826371679669E-08   7.196204512590021E-08
   7.318768724395284E-08   7.443556668386725E-08   7.570606697465448E-08
   7.699957868318733E-08   7.831649953825222E-08   7.965723455693061E-08
   8.102219617335336E-08   8.241180436987053E-08   8.382648681068156E-08
   8.526667897797040E-08   8.673282431059185E-08   8.822537434535581E-08
   8.974478886095719E-08   9.129153602460013E-08   9.286609254136619E-08
   9.446894380637715E-08   9.610058405980372E-08   9.776151654477290E-08
   9.945225366305195E-08   1.011733171759864E-07   1.029252384575708E-07
   1.047085582894121E-07   1.065238268818878E-07   1.083716053766263E-07
   1.102524647006798E-07   1.121669841527501E-07   1.141157557457019E-07
   1.160993840722949E-07   1.181184825720982E-07   1.201736750127165E-07
   1.222655968295967E-07   1.243948970302934E-07   1.265622376947936E-07
   1.287682882587648E-07   1.310137294521552E-07   1.332992594128466E-07
   1.356255872174779E-07   1.379934346910566E-07   1.404035386593079E-07
   1.428566434615964E-07   1.453535093563513E-07   1.478949143151207E-07
   1.504816475505377E-07   1.531145124438850E-07   1.557943264461375E-07
   1.585219231308617E-07   1.612981519300075E-07   1.641238767430451E-07
   1.669999764600610E-07   1.699273450781881E-07   1.729068915031390E-07
   1.759395452251966E-07   1.790262533637232E-07   1.821679769349177E-07
   1.853656964485553E-07   1.886204094869473E-07   1.919331288154048E-07
   1.953048869699098E-07   1.987367396008168E-07   2.022297597201626E-07
   2.057850371808178E-07   2.094036810973020E-07   2.130868249140586E-07
   2.168356234104116E-07   2.206512445176163E-07   2.245348803434479E-07
   2.284877520025203E-07   2.325110984993067E-07   2.366061762350362E-07
   2.407742670865044E-07   2.450166778432834E-07   2.493347432736005E-07
   2.537298222230354E-07   2.582032905244591E-07   2.627565481024545E-07
   2.673910241052459E-07   2.721081764137652E-07   2.769094890577398E-07
   2.817964700404759E-07   2.867706566627665E-07   2.918336202654648E-07
   2.969869552132949E-07   3.022322809897381E-07   3.075712469653943E-07
   3.130055357102817E-07   3.185368618579097E-07   3.241669690776822E-07
   3.298976362266567E-07   3.357306766282435E-07   3.416679302225981E-07
   3.477112688988981E-07   3.538626059382756E-07   3.601238859301791E-07
   3.664970881931864E-07   3.729842289350907E-07   3.795873621891922E-07
   3.863085850310756E-07   3.931500273950137E-07   4.001138535416409E-07
   4.072022711649438E-07   4.144175313890115E-07   4.217619293815438E-07
   4.292377937949976E-07   4.368474971830428E-07   4.445934644282010E-07
   4.524781599562623E-07   4.605040890494994E-07   4.686738060914725E-07
   4.769899139602533E-07   4.854550588417340E-07   4.940719376970271E-07
   5.028433072580747E-07   5.117719729584163E-07   5.208607828107134E-07
   5.301126367908143E-07   5.395304857212564E-07   5.491173378914299E-07
   5.588762647250706E-07   5.688103924604023E-07   5.789229015819359E-07
   5.892170318253615E-07   5.996960808980439E-07   6.103634107826806E-07
   6.212224535642216E-07   6.322766963545619E-07   6.435296847497447E-07
   6.549850336581320E-07   6.666464237424976E-07   6.785176061221979E-07
   6.906024071438440E-07   7.029047213783232E-07   7.154285119397125E-07
   7.281778185914388E-07   7.411567563569881E-07   7.543695156485187E-07
   7.678203613165731E-07   7.815136413181497E-07   7.954537858818537E-07
   8.096453073602564E-07   8.240928026141151E-07   8.388009474859941E-07
   8.537745081969758E-07   8.690183424514441E-07   8.845373925223437E-07
   9.003366951167283E-07   9.164213906092243E-07   9.327967128512620E-07
   9.494679895472431E-07   9.664406462168968E-07   9.837202057609080E-07
   1.001312299771629E-06   1.019222665300940E-06   1.037457143366198E-06
   1.056021687751346E-06   1.074922369398338E-06   1.094165363895226E-06
   1.113756961945902E-06   1.133703580012483E-06   1.154011750645785E-06
   1.174688128840915E-06   1.195739496887084E-06   1.217172765190083E-06
   1.238994969644227E-06   1.261213273871724E-06   1.283834980921882E-06
   1.306867537715837E-06   1.330318527351365E-06   1.354195673081153E-06
   1.378506845425330E-06   1.403260063518612E-06   1.428463499016195E-06
   1.454125474303732E-06   1.480254469216794E-06   1.506859125656867E-06
   1.533948247130832E-06   1.561530802919680E-06   1.589615933265141E-06
   1.618212953778736E-06   1.647331351513894E-06   1.676980792944529E-06
   1.707171130391151E-06   1.737912400884054E-06   1.769214832016754E-06
   1.801088845110100E-06   1.833545059230382E-06   1.866594294549476E-06
   1.900247576314424E-06   1.934516138988216E-06   1.969411429585256E-06
   2.004945112111321E-06   2.041129073717781E-06   2.077975428216058E-06
   2.115496518248724E-06   2.153704920748215E-06   2.192613451367311E-06
   2.232235170066014E-06   2.272583387784401E-06   2.313671666791408E-06
   2.355513826911803E-06   2.398123953048001E-06   2.441516398895598E-06
   2.485705791763442E-06   2.530707035039653E-06   2.576535317751438E-06
   2.623206120595858E-06   2.670735219971341E-06   2.719138693720749E-06
   2.768432923630176E-06   2.818634606042379E-06   2.869760758243340E-06
   2.921828721802504E-06   2.974856170707664E-06   3.028861116635158E-06
   3.083861913107962E-06   3.139877266286354E-06   3.196926249199464E-06
   3.255028296157094E-06   3.314203206784507E-06   3.374471164096904E-06
   3.435852745270562E-06   3.498368920882075E-06   3.562041059768527E-06
   3.626890946532430E-06   3.692940782866477E-06   3.760213188364041E-06
   3.828731222245265E-06   3.898518395492841E-06   3.969598666647325E-06
   4.041996446355350E-06   4.115736619711580E-06   4.190844556379125E-06
   4.267346110645966E-06   4.345267636474217E-06   4.424635995516845E-06
   4.505478567393066E-06   4.587823259803838E-06   4.671698518875862E-06
   4.757133339717735E-06   4.844157277192429E-06   4.932800456888280E-06
   5.023093586309927E-06   5.115067966553506E-06   5.208755502487756E-06
   5.304188709092496E-06   5.401400732822281E-06   5.500425378717099E-06
   5.601297091444188E-06   5.704050972568005E-06   5.808722825972774E-06
   5.915349146681310E-06   6.023967133176464E-06   6.134614704684217E-06
   6.247330499171213E-06   6.362153919217038E-06   6.479125138259810E-06
   6.598285081526280E-06   6.719675480602780E-06   6.843338887087999E-06
   6.969318670564794E-06   7.097659045735682E-06   7.228405085538514E-06
   7.361602738680249E-06   7.497298846782672E-06   7.635541161979112E-06
   7.776378364856402E-06   7.919860082725035E-06   8.066036908265722E-06
   8.214960418546400E-06   8.366683194411122E-06   8.521258840256031E-06
   8.678742004196091E-06   8.839188398631591E-06   9.002654821222034E-06
   9.169199176275467E-06   9.338880496561524E-06   9.511758965556480E-06
   9.687895940129018E-06   9.867353973675553E-06   1.005019683971201E-05
   1.023648955592548E-05   1.042629840870255E-05   1.061969097816535E-05
   1.081673616370287E-05   1.101750421043260E-05   1.122206673308712E-05
   1.143049673335445E-05   1.164286864242972E-05   1.185925836996643E-05
   1.207974329089607E-05   1.230440230240325E-05   1.253331587178715E-05
   1.276656601412972E-05   1.300423633179676E-05   1.324641207550409E-05
   1.349318014449962E-05   1.374462914267812E-05   1.400084943115658E-05
   1.426193312472673E-05   1.452797414684964E-05   1.479906825908358E-05
   1.507531309850936E-05   1.535680821469809E-05   1.564365510743787E-05
   1.593595726523700E-05   1.623382020460181E-05   1.653735151006927E-05
   1.684666087504225E-05   1.716186014342751E-05   1.748306335209690E-05
   1.781038677418716E-05   1.814394896325475E-05   1.848387079830247E-05
   1.883027552969501E-05   1.918328882598092E-05   1.954303882163860E-05
   1.990965616576459E-05   2.028327407172251E-05   2.066402836777153E-05
   2.105205754869347E-05   2.144750282843821E-05   2.185050819380715E-05
   2.226122045919530E-05   2.267978932241234E-05   2.310636742160414E-05
   2.354111039329595E-05   2.398417693157934E-05   2.443572884846518E-05
   2.489593113542543E-05   2.536495202614698E-05   2.584296306052116E-05
   2.633013914989311E-05   2.682665864359544E-05   2.733270339679142E-05
   2.784845883965306E-05   2.837411404790013E-05   2.890986181472678E-05
   2.945589872414248E-05   3.001242522575523E-05   3.057964571102471E-05
   3.115776859101419E-05   3.174700637567040E-05   3.234757575466076E-05
   3.295969767979873E-05   3.358359744908759E-05   3.421950479241448E-05
   3.486765395892669E-05   3.552828380612251E-05   3.620163789069050E-05
   3.688796456113036E-05   3.758751705219069E-05   3.830055358115915E-05
   3.902733744603603E-05   3.976813712560914E-05   4.052322638147879E-05
   4.129288436292244E-05   4.207739570890656E-05   4.287705063721082E-05
   4.369214507139440E-05   4.452298081131902E-05   4.536986562610062E-05
   4.623311334204544E-05   4.711304388824855E-05   4.800998344630520E-05
   4.892426468570437E-05   4.985622682555931E-05   5.080621574532763E-05
   5.177458413783510E-05   5.276169163485649E-05   5.376790494503680E-05
   5.479359799293967E-05   5.583915206088777E-05   5.690495593355390E-05
   5.799140604539550E-05   5.909890663095034E-05   6.022786987806344E-05
   6.137871608409748E-05   6.255187381518478E-05   6.374778006857858E-05
   6.496688043816305E-05   6.620962928318292E-05   6.747648990025341E-05
   6.876793469871373E-05   7.008444537938789E-05   7.142651311681749E-05
   7.279463874503326E-05   7.418933294693215E-05   7.561111644732908E-05
   7.706052020975324E-05   7.853808563706002E-05   8.004436477593130E-05
   8.157992052533761E-05   8.314532684903786E-05   8.474116899219305E-05
   8.636804370217192E-05   8.802655945362786E-05   8.971733667792838E-05
   9.144100799701910E-05   9.319821846180649E-05   9.498962579514442E-05
   9.681590063951170E-05   9.867772680946898E-05   1.005758015489855E-04
   1.025108357937271E-04   1.044835544383990E-04   1.064946966092386E-04
   1.085450159417553E-04   1.106352808638156E-04   1.127662748841736E-04
   1.149387968865503E-04   1.171536614293644E-04   1.194116990512209E-04
   1.217137565822659E-04   1.240606974615160E-04   1.264534020602756E-04
   1.288927680117546E-04   1.313797105470020E-04   1.339151628372748E-04
   1.365000763429598E-04   1.391354211691721E-04   1.418221864281537E-04
   1.445613806085980E-04   1.473540319520298E-04   1.502011888363712E-04
   1.531039201668260E-04   1.560633157742190E-04   1.590804868209272E-04
   1.621565662145435E-04   1.652927090294164E-04   1.684900929362087E-04
   1.717499186396256E-04   1.750734103244609E-04   1.784618161101139E-04
   1.819164085137343E-04   1.854384849221512E-04   1.890293680727488E-04
   1.926904065434520E-04   1.964229752519879E-04   2.002284759645934E-04
   2.041083378143415E-04   2.080640178292597E-04   2.120970014704213E-04
   2.162088031801893E-04   2.204009669407969E-04   2.246750668434536E-04
   2.290327076681666E-04   2.334755254744707E-04   2.380051882032659E-04
   2.426233962899605E-04   2.473318832891259E-04   2.521324165108683E-04
   2.570267976691295E-04   2.620168635421302E-04   2.671044866451729E-04
   2.722915759160276E-04   2.775800774131228E-04   2.829719750267720E-04
   2.884692912036685E-04   2.940740876848826E-04   2.997884662576036E-04
   3.056145695208685E-04   3.115545816655276E-04   3.176107292686963E-04
   3.237852821029510E-04   3.300805539605277E-04   3.364989034927902E-04
   3.430427350652320E-04   3.497144996282888E-04   3.565166956042363E-04
   3.634518697904558E-04   3.705226182793521E-04   3.777315873952161E-04
   3.850814746483252E-04   3.925750297065813E-04   4.002150553849916E-04
   4.080044086532996E-04   4.159460016620808E-04   4.240428027876216E-04
   4.322978376959031E-04   4.407141904260204E-04   4.492950044933686E-04
   4.580434840129338E-04   4.669628948430353E-04   4.760565657498613E-04
   4.853278895931583E-04   4.947803245334288E-04   5.044173952610028E-04
   5.142426942473525E-04   5.242598830190249E-04   5.344726934545720E-04
   5.448849291048663E-04   5.555004665371901E-04   5.663232567034975E-04
   5.773573263332523E-04   5.886067793512466E-04   6.000757983208183E-04
   6.117686459128849E-04   6.236896664012188E-04   6.358432871843976E-04
   6.482340203348651E-04   6.608664641755463E-04   6.737453048844674E-04
   6.868753181278342E-04   7.002613707220314E-04   7.139084223250112E-04
   7.278215271575418E-04   7.420058357548000E-04   7.564665967487911E-04
   7.712091586820881E-04   7.862389718533919E-04   8.015615901954134E-04
   8.171826731855925E-04   8.331079877901691E-04   8.493434104421298E-04
   8.658949290535634E-04   8.827686450629592E-04   8.999707755179912E-04
   9.175076551943406E-04   9.353857387511084E-04   9.536116029233843E-04
   9.721919487525375E-04   9.911336038548068E-04   1.010443524728771E-03
   1.030128799102285E-03   1.050196648319484E-03   1.070654429768442E-03
   1.091509639350110E-03   1.112769913989127E-03   1.134443034187148E-03
   1.156536926619284E-03   1.179059666774318E-03   1.202019481639311E-03
   1.225424752429256E-03   1.249284017362422E-03   1.273605974482051E-03
   1.298399484525068E-03   1.323673573838464E-03   1.349437437344048E-03
   1.375700441552212E-03   1.402472127625435E-03   1.429762214492181E-03
   1.457580602011910E-03   1.485937374191891E-03   1.514842802456527E-03
   1.544307348969908E-03   1.574341670012294E-03   1.604956619411270E-03
   1.636163252028270E-03   1.667972827301234E-03   1.700396812844097E-03
   1.733446888103869E-03   1.767134948076051E-03   1.801473107079109E-03
   1.836473702588777E-03   1.872149299132935E-03   1.908512692247801E-03
   1.945576912496225E-03   1.983355229548809E-03   2.021861156328642E-03
   2.061108453220399E-03   2.101111132344576E-03   2.141883461897614E-03
   2.183439970558704E-03   2.225795451964009E-03   2.268964969249094E-03
   2.312963859660322E-03   2.357807739235980E-03   2.403512507557907E-03
   2.450094352574378E-03   2.497569755495019E-03   2.545955495758501E-03
   2.595268656073772E-03   2.645526627535580E-03   2.696747114815043E-03
   2.748948141426000E-03   2.802148055067882E-03   2.856365533045851E-03
   2.911619587768919E-03   2.967929572326767E-03   3.025315186145996E-03
   3.083796480726487E-03   3.143393865458588E-03   3.204128113521805E-03
   3.266020367865668E-03   3.329092147273444E-03   3.393365352509344E-03
   3.458862272549868E-03   3.525605590899902E-03   3.593618391994200E-03
   3.662924167684814E-03   3.733546823815082E-03   3.805510686880714E-03
   3.878840510778523E-03   3.953561483643337E-03   4.029699234773566E-03
   4.107279841645937E-03   4.186329837019822E-03   4.266876216131621E-03
   4.348946443979583E-03   4.432568462699457E-03   4.517770699031338E-03
   4.604582071877993E-03   4.693031999955002E-03   4.783150409532953E-03
   4.874967742271910E-03   4.968514963148363E-03   5.063823568474808E-03
   5.160925594012057E-03   5.259853623174381E-03   5.360640795327501E-03
   5.463320814179420E-03   5.567927956264043E-03   5.674497079517490E-03
   5.783063631946929E-03   5.893663660391755E-03   6.006333819376843E-03
   6.121111380057561E-03   6.238034239256183E-03   6.357140928589274E-03
   6.478470623685560E-03   6.602063153493724E-03   6.727959009679506E-03
   6.856199356111438E-03   6.986826038434431E-03   7.119881593730395E-03
   7.255409260264985E-03   7.393452987319476E-03   7.534057445106701E-03
   7.677268034769912E-03   7.823130898463281E-03   7.971692929512780E-03
   8.123001782655936E-03   8.277105884359004E-03   8.434054443209899E-03
   8.593897460385181E-03   8.756685740189273E-03   8.922470900663938E-03
   9.091305384266014E-03   9.263242468611212E-03   9.438336277281681E-03
   9.616641790694961E-03   9.798214857031777E-03   9.983112203219983E-03
   1.017139144597191E-02   1.036311110287208E-02   1.055833060351238E-02
   1.075711030067121E-02   1.095951148153350E-02   1.116559637894786E-02
   1.137542818271725E-02   1.158907105091933E-02   1.180659012125240E-02
   1.202805152240282E-02   1.225352238542938E-02   1.248307085516030E-02
   1.271676610159787E-02   1.295467833132595E-02   1.319687879891511E-02
   1.344343981832013E-02   1.369443477426431E-02   1.394993813360476E-02
   1.421002545667283E-02   1.447477340858330E-02   1.474425977050617E-02
   1.501856345089404E-02   1.529776449665853E-02   1.558194410428838E-02
   1.587118463090183E-02   1.616556960522586E-02   1.646518373849400E-02
   1.677011293525493E-02   1.708044430408304E-02   1.739626616818260E-02
   1.771766807587605E-02   1.804474081096758E-02   1.837757640297205E-02
   1.871626813719941E-02   1.906091056468441E-02   1.941159951195116E-02
   1.976843209060137E-02   2.013150670671537E-02   2.050092307005417E-02
   2.087678220305078E-02   2.125918644957847E-02   2.164823948348341E-02
   2.204404631686874E-02   2.244671330811673E-02   2.285634816963530E-02
   2.327305997531483E-02   2.369695916768078E-02   2.412815756472716E-02
   2.456676836641578E-02   2.501290616082530E-02   2.546668692993418E-02
   2.592822805502091E-02   2.639764832166460E-02   2.687506792432845E-02
   2.736060847050839E-02   2.785439298442843E-02   2.835654591026416E-02
   2.886719311487502E-02   2.938646189002582E-02   2.991448095407722E-02
   3.045138045312467E-02   3.099729196156464E-02   3.155234848206648E-02
   3.211668444492802E-02   3.269043570679205E-02   3.327373954870077E-02
   3.386673467346457E-02   3.446956120232096E-02   3.508236067085903E-02
   3.570527602418429E-02   3.633845161129828E-02   3.698203317866652E-02
   3.763616786294825E-02   3.830100418286062E-02   3.897669203014940E-02
   3.966338265963804E-02   4.036122867832588E-02   4.107038403350644E-02
   4.179100399987539E-02   4.252324516559801E-02   4.326726541730472E-02
   4.402322392398341E-02   4.479128111973603E-02   4.557159868536693E-02
   4.636433952876978E-02   4.716966776407889E-02   4.798774868955112E-02
   4.881874876414304E-02   4.966283558274823E-02   5.052017785005879E-02
   5.139094535301451E-02   5.227530893180287E-02   5.317344044937240E-02
   5.408551275942154E-02   5.501169967282450E-02   5.595217592245531E-02
   5.690711712637068E-02   5.787669974931198E-02   5.886110106248597E-02
   5.986049910158376E-02   6.087507262299695E-02   6.190500105818942E-02
   6.295046446618303E-02   6.401164348411514E-02   6.508871927582532E-02
   6.618187347842849E-02   6.729128814683152E-02   6.841714569614980E-02
   6.955962884198016E-02   7.071892053848657E-02   7.189520391425429E-02
   7.308866220586864E-02   7.429947868917401E-02   7.552783660816860E-02
   7.677391910149090E-02   7.803790912645300E-02   7.931998938057670E-02
   8.062034222058793E-02   8.193914957882530E-02   8.327659287701854E-02
   8.463285293739328E-02   8.600810989105814E-02   8.740254308363100E-02
   8.881633097806135E-02   9.024965105460613E-02   9.170267970791672E-02
   9.317559214119592E-02   9.466856225738286E-02   9.618176254732648E-02
   9.771536397490692E-02   9.926953585906628E-02   1.008444457527102E-01
   1.024402593184434E-01   1.040571402011023E-01   1.056952498970497E-01
   1.073547476201971E-01   1.090357901647225E-01   1.107385317644503E-01
   1.124631239488643E-01   1.142097153957250E-01   1.159784517802615E-01
   1.177694756209160E-01   1.195829261216124E-01   1.214189390105308E-01
   1.232776463753640E-01   1.251591764950395E-01   1.270636536678899E-01
   1.289911980362576E-01   1.309419254075215E-01   1.329159470715363E-01
   1.349133696144763E-01   1.369342947290814E-01   1.389788190212997E-01
   1.410470338133305E-01   1.431390249430700E-01   1.452548725599664E-01
   1.473946509172937E-01   1.495584281608579E-01   1.517462661141512E-01
   1.539582200599732E-01   1.561943385185434E-01   1.584546630221300E-01
   1.607392278862274E-01   1.630480599773151E-01   1.653811784772362E-01
   1.677385946442392E-01   1.701203115707288E-01   1.725263239377761E-01
   1.749566177664454E-01   1.774111701659959E-01   1.798899490790245E-01
   1.823929130236191E-01   1.849200108325982E-01   1.874711813899161E-01
   1.900463533643214E-01   1.926454449403584E-01   1.952683635468125E-01
   1.979150055826995E-01   2.005852561409139E-01   2.032789887296503E-01
   2.059960649917247E-01   2.087363344219268E-01   2.114996340825447E-01
   2.142857883172098E-01   2.170946084632202E-01   2.199258925625084E-01
   2.227794250714322E-01   2.256549765695742E-01   2.285523034677499E-01
   2.314711477154344E-01   2.344112365078314E-01   2.373722819928202E-01
   2.403539809780325E-01   2.433560146383237E-01   2.463780482239217E-01
   2.494197307695503E-01   2.524806948048437E-01   2.555605560663868E-01
   2.586589132117348E-01   2.617753475357843E-01   2.649094226898905E-01
   2.680606844041451E-01   2.712286602132481E-01   2.744128591864304E-01
   2.776127716619016E-01   2.808278689863173E-01   2.840576032597761E-01
   2.873014070868732E-01   2.905586933343460E-01   2.938288548958576E-01
   2.971112644644626E-01   3.004052743132990E-01   3.037102160850326E-01
   3.070254005905642E-01   3.103501176174703E-01   3.136836357486090E-01
   3.170252021912557E-01   3.203740426170645E-01   3.237293610130471E-01
   3.270903395436539E-01   3.304561384239111E-01   3.338258958034053E-01
   3.371987276607373E-01   3.405737277078742E-01   3.439499673036140E-01
   3.473264953751569E-01   3.507023383465424E-01   3.540765000724766E-01
   3.574479617758467E-01   3.608156819870041E-01   3.641785964827159E-01
   3.675356182225317E-01   3.708856372802249E-01   3.742275207679359E-01
   3.775601127506932E-01   3.808822341491365E-01   3.841926826284994E-01
   3.874902324722620E-01   3.907736344393407E-01   3.940416156042471E-01
   3.972928791803157E-01   4.005261043268617E-01   4.037399459419561E-01
   4.069330344434017E-01   4.101039755414016E-01   4.132513500073375E-01
   4.163737134439663E-01   4.194695960631789E-01   4.225375024782137E-01
   4.255759115178476E-01   4.285832760705607E-01   4.315580229669744E-01
   4.344985529089495E-01   4.374032404535853E-01   4.402704340599648E-01
   4.430984562058126E-01   4.458856035802944E-01   4.486301473579634E-01
   4.513303335574047E-01   4.539843834864639E-01   4.565904942741448E-01
   4.591468394873917E-01   4.616515698291420E-01   4.641028139123241E-01
   4.664986791030005E-01   4.688372524246929E-01   4.711166015151440E-01
   4.733347756264073E-01   4.754898066592290E-01   4.775797102231489E-01
   4.796024867145720E-01   4.815561224061526E-01   4.834385905421101E-01
   4.852478524354557E-01   4.869818585644714E-01   4.886385496670627E-01
   4.902158578327360E-01   4.917117075929063E-01   4.931240170109734E-01
   4.944506987741291E-01   4.956896612891744E-01   4.968388097847526E-01
   4.978960474223728E-01   4.988592764184408E-01   4.997263991792566E-01
   5.004953194506130E-01   5.011639434832714E-01   5.017301812152081E-01
   5.021919474711519E-01   5.025471631795787E-01   5.027937566069971E-01
   5.029296646090727E-01   5.029528338978871E-01   5.028612223244179E-01
   5.026528001751651E-01   5.023255514817200E-01   5.018774753419863E-01
   5.013065872517115E-01   5.006109204449544E-01   4.997885272421239E-01
   4.988374804042381E-01   4.977558744920924E-01   4.965418272290769E-01
   4.951934808664412E-01   4.937090035498709E-01   4.920865906863116E-01
   4.903244663100443E-01   4.884208844470918E-01   4.863741304770994E-01
   4.841825224919083E-01   4.818444126500934E-01   4.793581885268079E-01
   4.767222744583247E-01   4.739351328807199E-01   4.709952656621891E-01
   4.679012154285324E-01   4.646515668813776E-01   4.612449481087524E-01
   4.576800318876389E-01   4.539555369781784E-01   4.500702294092104E-01
   4.460229237548552E-01   4.418124844018584E-01   4.374378268074340E-01
   4.328979187473474E-01   4.281917815539847E-01   4.233184913441563E-01
   4.182771802363796E-01   4.130670375573765E-01   4.076873110375125E-01
   4.021373079948854E-01   3.964163965077521E-01   3.905240065749570E-01
   3.844596312639920E-01   3.782228278462853E-01   3.718132189192714E-01
   3.652304935147516E-01   3.584744081929969E-01   3.515447881219918E-01
   3.444415281411492E-01   3.371645938087607E-01   3.297140224323686E-01
   3.220899240811678E-01   3.142924825794592E-01   3.063219564800867E-01
   2.981786800166962E-01   2.898630640335570E-01   2.813755968915866E-01
   2.727168453491158E-01   2.638874554158300E-01   2.548881531782189E-01
   2.457197455947632E-01   2.363831212589936E-01   2.268792511284580E-01
   2.172091892175493E-01   2.073740732520676E-01   1.973751252833219E-01
   1.872136522595224E-01   1.768910465521790E-01   1.664087864351985E-01
   1.557684365143785E-01   1.449716481050227E-01   1.340201595554557E-01
   1.229157965143051E-01   1.116604721395341E-01   1.002561872473691E-01
   8.870503039945898E-02   7.700917792684318E-02   6.517089388958255E-02
   5.319252997123316E-02   4.107652530770791E-02   2.882540625048047E-02
   1.644178606453229E-02   3.928364561923015E-03  -8.712072327622833E-03
  -2.147665304719184E-02  -3.436242096176534E-02  -4.736633496292111E-02
  -6.048527012565168E-02  -7.371601841332552E-02  -8.705528942640579E-02
  -1.004997111902113E-01  -1.140458309767853E-01  -1.276901161558563E-01
  -1.414289550699580E-01  -1.552586579290596E-01  -1.691754577205642E-01
  -1.831755111313025E-01  -1.972548994792069E-01  -2.114096296537265E-01
  -2.256356350657668E-01  -2.399287766100346E-01  -2.542848436451645E-01
  -2.686995549999215E-01  -2.831685600171402E-01  -2.976874396508944E-01
  -3.122517076367148E-01  -3.268568117595109E-01  -3.414981352492144E-01
  -3.561709983400642E-01  -3.708706600358825E-01  -3.855923201306187E-01
  -4.003311215407672E-01  -4.150821530138575E-01  -4.298404522847703E-01
  -4.446010097587322E-01  -4.593587728058007E-01  -4.741086507554951E-01
  -4.888455206805876E-01  -5.035642340540887E-01  -5.182596243507611E-01
  -5.329265156411156E-01  -5.475597321883269E-01  -5.621541090031117E-01
  -5.767045032346600E-01  -5.912058061743063E-01  -6.056529555216038E-01
  -6.200409474116693E-01  -6.343648475345590E-01  -6.486198005046476E-01
  -6.628010364805984E-01  -6.769038739224295E-01  -6.909237173358723E-01
  -7.048560489331225E-01  -7.186964133673027E-01  -7.324403950973937E-01
  -7.460835885104813E-01  -7.596215616368605E-01  -7.730498150723434E-01
  -7.863637384691243E-01  -7.995585675490876E-01  -8.126293449102303E-01
  -8.255708878456223E-01  -8.383777659380002E-01  -8.510442903665020E-01
  -8.635645157722741E-01  -8.759322543379019E-01  -8.881411006237637E-01
  -9.001844648357022E-01  -9.120556116827385E-01  -9.237477018581000E-01
  -9.352538334060071E-01  -9.465670807299326E-01  -9.576805296377316E-01
  -9.685873074890784E-01  -9.792806081182152E-01  -9.897537116914435E-01
  -1.000000000000000E+00  -1.010012967888767E+00  -1.019786231601508E+00
  -1.029313534813675E+00  -1.038588753054891E+00  -1.047605897121669E+00
  -1.056359115966822E+00  -1.064842699439436E+00  -1.073051081146754E+00
  -1.080978841620973E+00  -1.088620711901113E+00  -1.095971577582328E+00
  -1.103026483340716E+00  -1.109780637909073E+00  -1.116229419456083E+00
  -1.122368381306356E+00  -1.128193257929950E+00  -1.133699971126113E+00
  -1.138884636325785E+00  -1.143743568940064E+00  -1.148273290686401E+00
  -1.152470535830262E+00  -1.156332257286728E+00  -1.159855632533654E+00
  -1.163038069295186E+00  -1.165877210961444E+00  -1.168370941716698E+00
  -1.170517391354474E+00  -1.172314939763403E+00  -1.173762221072363E+00
  -1.174858127447558E+00  -1.175601812537510E+00  -1.175992694564690E+00
  -1.176030459064587E+00  -1.175715061274579E+00  -1.175046728175946E+00
  -1.174025960192970E+00  -1.172653532553182E+00  -1.170930496312591E+00
  -1.168858179049251E+00  -1.166438185227676E+00  -1.163672396235638E+00
  -1.160562970093663E+00  -1.157112340836216E+00  -1.153323217562064E+00
  -1.149198583149840E+00  -1.144741692633196E+00  -1.139956071228408E+00
  -1.134845512005716E+00  -1.129414073194285E+00  -1.123666075109265E+00
  -1.117606096688340E+00  -1.111238971624144E+00  -1.104569784078297E+00
  -1.097603863962435E+00  -1.090346781771633E+00  -1.082804342956064E+00
  -1.074982581817639E+00  -1.066887754919812E+00  -1.058526334000697E+00
  -1.049904998382173E+00  -1.041030626870504E+00  -1.031910289147955E+00
  -1.022551236659093E+00  -1.012960892999799E+00  -1.003146843822251E+00
  -9.931168262746661E-01  -9.828787180001618E-01  -9.724405257249716E-01
  -9.618103734720622E-01  -9.509964904419099E-01  -9.400071986076466E-01
  -9.288509000768075E-01  -9.175360642764268E-01  -9.060712150220416E-01
  -8.944649175342186E-01  -8.827257654683864E-01  -8.708623680249735E-01
  -8.588833372070497E-01  -8.467972752918751E-01  -8.346127625809783E-01
  -8.223383454904730E-01  -8.099825250395296E-01  -7.975537457903449E-01
  -7.850603852874803E-01  -7.725107440383260E-01  -7.599130360697981E-01
  -7.472753800893007E-01  -7.346057912706108E-01  -7.219121736778271E-01
  -7.092023133329928E-01  -6.964838719255706E-01  -6.837643811547650E-01
  -6.710512376888487E-01  -6.583516987192587E-01  -6.456728780813966E-01
  -6.330217429088475E-01  -6.204051107832174E-01  -6.078296473380215E-01
  -5.953018642720768E-01  -5.828281177256961E-01  -5.704146069716637E-01
  -5.580673733724916E-01  -5.457922995558081E-01  -5.335951087608872E-01
  -5.214813643112690E-01  -5.094564691710793E-01  -4.975256655459981E-01
  -4.856940344937671E-01  -4.739664955136008E-01  -4.623478060887733E-01
  -4.508425611619244E-01  -4.394551925281395E-01  -4.281899681365208E-01
  -4.170509912966755E-01  -4.060421997921895E-01  -3.951673649086232E-01
  -3.844300903887748E-01  -3.738338113327827E-01  -3.633817930650106E-01
  -3.530771299934790E-01  -3.429227444908035E-01  -3.329213858280982E-01
  -3.230756291950431E-01  -3.133878748402451E-01  -3.038603473661010E-01
  -2.944950952115496E-01  -2.852939903543851E-01  -2.762587282621469E-01
  -2.673908281170423E-01  -2.586916333359022E-01  -2.501623124008834E-01
  -2.418038600105956E-01  -2.336170985546887E-01  -2.256026799078523E-01
  -2.177610875319206E-01  -2.100926388676129E-01  -2.025974879907544E-01
  -1.952756285020046E-01  -1.881268966146011E-01  -1.811509744018387E-01
  -1.743473931653040E-01  -1.677155368865846E-01  -1.612546457293713E-01
  -1.549638195655455E-01  -1.488420215076837E-01  -1.428880814409159E-01
  -1.371006995584929E-01  -1.314784499168409E-01  -1.260197840363023E-01
  -1.207230345821840E-01  -1.155864191662692E-01  -1.106080443109549E-01
  -1.057859096163083E-01  -1.011179121646236E-01  -9.660185118792131E-02
  -9.223543301200141E-02  -8.801627627713779E-02  -8.394191742146780E-02
  -8.000981639975199E-02  -7.621736259849757E-02  -7.256188089936212E-02
  -6.904063783683810E-02  -6.565084779369916E-02  -6.238967917850484E-02
  -5.925426053323597E-02  -5.624168652528357E-02  -5.334902378581616E-02
  -5.057331656522544E-02  -4.791159218515738E-02  -4.536086627492834E-02
  -4.291814778740267E-02  -4.058044379533760E-02  -3.834476407361666E-02
  -3.620812547568679E-02  -3.416755611399763E-02  -3.222009935452160E-02
  -3.036281763476276E-02  -2.859279611332086E-02  -2.690714615732756E-02
  -2.530300867215454E-02  -2.377755727590240E-02  -2.232800131946186E-02
  -2.095158875149734E-02  -1.964560882660570E-02  -1.840739465414261E-02
  -1.723432558476124E-02  -1.612382943165019E-02  -1.507338452366067E-02
  -1.408052158786382E-02  -1.314282545967557E-02  -1.225793661940607E-02
  -1.142355255486579E-02  -1.063742895049647E-02  -9.897380704336689E-03
  -9.201282774958627E-03  -8.547070861303685E-03  -7.932741919085547E-03
  -7.356354518108455E-03  -6.816029045460507E-03  -6.309947760082400E-03
  -5.836354704680371E-03  -5.393555481348858E-03  -4.979916897595502E-03
  -4.593866489721619E-03  -4.233891930708775E-03  -3.898540329900640E-03
  -3.586417431853053E-03  -3.296186721758658E-03  -3.026568444839893E-03
  -2.776338547049873E-03  -2.544327544329043E-03  -2.329419327540540E-03
  -2.130549910052984E-03  -1.946706124759618E-03  -1.776924277121155E-03
  -1.620288760599548E-03  -1.475930640614502E-03  -1.343026212906736E-03
  -1.220795541934429E-03  -1.108500984664312E-03  -1.005445704848558E-03
  -9.109721826047085E-04  -8.244607238398785E-04  -7.453279737835370E-04
  -6.730254386161480E-04  -6.070380189045912E-04  -5.468825582798500E-04
  -4.921064105181891E-04  -4.422860279138461E-04  -3.970255735588936E-04
   0.000000000000000E+00   0.000000000000000E+00   0.000000000000000E+00
   0.000000000000000E+00   0.000000000000000E+00   0.000000000000000E+00
   0.000000000000000E+00   0.000000000000000E+00   0.000000000000000E+00
   0.000000000000000E+00   0.000000000000000E+00   0.000000000000000E+00
   0.000000000000000E+00   0.000000000000000E+00   0.000000000000000E+00
   0.000000000000000E+00   0.000000000000000E+00   0.000000000000000E+00
   0.000000000000000E+00   0.000000000000000E+00   0.000000000000000E+00
   0.000000000000000E+00   0.000000000000000E+00   0.000000000000000E+00
   0.000000000000000E+00   0.000000000000000E+00   0.000000000000000E+00
   0.000000000000000E+00   0.000000000000000E+00   0.000000000000000E+00
   0.000000000000000E+00   0.000000000000000E+00   0.000000000000000E+00
   0.000000000000000E+00   0.000000000000000E+00   0.000000000000000E+00
   0.000000000000000E+00   0.000000000000000E+00   0.000000000000000E+00
   0.000000000000000E+00   0.000000000000000E+00   0.000000000000000E+00
   0.000000000000000E+00   0.000000000000000E+00   0.000000000000000E+00
   0.000000000000000E+00   0.000000000000000E+00   0.000000000000000E+00
   0.000000000000000E+00   0.000000000000000E+00   0.000000000000000E+00
   0.000000000000000E+00   0.000000000000000E+00   0.000000000000000E+00
   0.000000000000000E+00   0.000000000000000E+00   0.000000000000000E+00
   0.000000000000000E+00   0.000000000000000E+00   0.000000000000000E+00
   0.000000000000000E+00   0.000000000000000E+00   0.000000000000000E+00
   0.000000000000000E+00   0.000000000000000E+00   0.000000000000000E+00
   0.000000000000000E+00   0.000000000000000E+00   0.000000000000000E+00
   0.000000000000000E+00   0.000000000000000E+00   0.000000000000000E+00
   0.000000000000000E+00   0.000000000000000E+00   0.000000000000000E+00
   0.000000000000000E+00   0.000000000000000E+00   0.000000000000000E+00
   0.000000000000000E+00   0.000000000000000E+00   0.000000000000000E+00
   0.000000000000000E+00   0.000000000000000E+00   0.000000000000000E+00
   0.000000000000000E+00   0.000000000000000E+00   0.000000000000000E+00
   0.000000000000000E+00   0.000000000000000E+00   0.000000000000000E+00
   0.000000000000000E+00   0.000000000000000E+00   0.000000000000000E+00
   0.000000000000000E+00   0.000000000000000E+00   0.000000000000000E+00
   0.000000000000000E+00   0.000000000000000E+00   0.000000000000000E+00
   0.000000000000000E+00   0.000000000000000E+00   0.000000000000000E+00
   0.000000000000000E+00   0.000000000000000E+00   0.000000000000000E+00
   0.000000000000000E+00   0.000000000000000E+00   0.000000000000000E+00
   0.000000000000000E+00   0.000000000000000E+00   0.000000000000000E+00
   0.000000000000000E+00   0.000000000000000E+00   0.000000000000000E+00
   0.000000000000000E+00   0.000000000000000E+00   0.000000000000000E+00
   0.000000000000000E+00   0.000000000000000E+00   0.000000000000000E+00
   0.000000000000000E+00   0.000000000000000E+00   0.000000000000000E+00
   0.000000000000000E+00   0.000000000000000E+00   0.000000000000000E+00
   0.000000000000000E+00   0.000000000000000E+00   0.000000000000000E+00
   0.000000000000000E+00   0.000000000000000E+00   0.000000000000000E+00
   0.000000000000000E+00   0.000000000000000E+00   0.000000000000000E+00
   0.000000000000000E+00   0.000000000000000E+00   0.000000000000000E+00
   0.000000000000000E+00   0.000000000000000E+00   0.000000000000000E+00
   0.000000000000000E+00   0.000000000000000E+00   0.000000000000000E+00
   0.000000000000000E+00   0.000000000000000E+00   0.000000000000000E+00
   0.000000000000000E+00   0.000000000000000E+00   0.000000000000000E+00
   0.000000000000000E+00   0.000000000000000E+00   0.000000000000000E+00
   0.000000000000000E+00   0.000000000000000E+00   0.000000000000000E+00
   0.000000000000000E+00   0.000000000000000E+00   0.000000000000000E+00
   0.000000000000000E+00   0.000000000000000E+00   0.000000000000000E+00
   0.000000000000000E+00   0.000000000000000E+00   0.000000000000000E+00
   0.000000000000000E+00   0.000000000000000E+00   0.000000000000000E+00
   0.000000000000000E+00   0.000000000000000E+00   0.000000000000000E+00
   0.000000000000000E+00   0.000000000000000E+00   0.000000000000000E+00
   0.000000000000000E+00   0.000000000000000E+00   0.000000000000000E+00
   0.000000000000000E+00   0.000000000000000E+00   0.000000000000000E+00
   0.000000000000000E+00   0.000000000000000E+00   0.000000000000000E+00
   0.000000000000000E+00   0.000000000000000E+00   0.000000000000000E+00
   0.000000000000000E+00   0.000000000000000E+00   0.000000000000000E+00
   0.000000000000000E+00
        </PP_GIPAW_WFS_AE>
        <PP_GIPAW_WFS_PS size="1525">
  -4.062693002852215E-10  -4.144768104368809E-10  -4.228501200493640E-10
  -4.313925785262172E-10  -4.401076029331063E-10  -4.489986793646844E-10
  -4.580693643390727E-10  -4.673232862205145E-10  -4.767641466707619E-10
  -4.863957221297917E-10  -4.962218653264245E-10  -5.062465068194676E-10
  -5.164736565699861E-10  -5.269074055453393E-10  -5.375519273556184E-10
  -5.484114799231440E-10  -5.594904071856876E-10  -5.707931408341022E-10
  -5.823242020850569E-10  -5.940882034895794E-10  -6.060898507781350E-10
  -6.183339447429787E-10  -6.308253831585350E-10  -6.435691627405685E-10
  -6.565703811449358E-10  -6.698342390067125E-10  -6.833660420205133E-10
  -6.971712030628393E-10  -7.112552443572977E-10  -7.256237996835617E-10
  -7.402826166309562E-10  -7.552375588975658E-10  -7.704946086357924E-10
  -7.860598688452925E-10  -8.019395658142552E-10  -8.181400516100004E-10
  -8.346678066198853E-10  -8.515294421435432E-10  -8.687317030374922E-10
  -8.862814704131638E-10  -9.041857643894367E-10  -9.224517469007759E-10
  -9.410867245621008E-10  -9.600981515915255E-10  -9.794936327921419E-10
  -9.992809265940442E-10  -1.019467948157797E-09  -1.040062772540609E-09
  -1.061073637926456E-09  -1.082508948921463E-09  -1.104377279915863E-09
  -1.126687378513857E-09  -1.149448169032774E-09  -1.172668756072918E-09
  -1.196358428159518E-09  -1.220526661458272E-09  -1.245183123565931E-09
  -1.270337677377464E-09  -1.296000385031348E-09  -1.322181511934556E-09
  -1.348891530868854E-09  -1.376141126180050E-09  -1.403941198051874E-09
  -1.432302866866198E-09  -1.461237477651331E-09  -1.490756604620184E-09
  -1.520872055800102E-09  -1.551595877756236E-09  -1.582940360410324E-09
  -1.614918041956826E-09  -1.647541713878360E-09  -1.680824426062472E-09
  -1.714779492021759E-09  -1.749420494219455E-09  -1.784761289502587E-09
  -1.820816014644905E-09  -1.857599092001774E-09  -1.895125235279307E-09
  -1.933409455420046E-09  -1.972467066607530E-09  -2.012313692392179E-09
  -2.052965271940915E-09  -2.094438066413047E-09  -2.136748665464944E-09
  -2.179913993886116E-09  -2.223951318369360E-09  -2.268878254417659E-09
  -2.314712773390619E-09  -2.361473209693257E-09  -2.409178268110000E-09
  -2.457847031286844E-09  -2.507498967364672E-09  -2.558153937766768E-09
  -2.609832205143644E-09  -2.662554441478373E-09  -2.716341736355654E-09
  -2.771215605397929E-09  -2.827197998871917E-09  -2.884311310469014E-09
  -2.942578386263058E-09  -3.002022533849071E-09  -3.062667531666594E-09
  -3.124537638511403E-09  -3.187657603239326E-09  -3.252052674666117E-09
  -3.317748611667325E-09  -3.384771693482195E-09  -3.453148730225684E-09
  -3.522907073612889E-09  -3.594074627900087E-09  -3.666679861046815E-09
  -3.740751816103424E-09  -3.816320122828676E-09  -3.893415009542067E-09
  -3.972067315215534E-09  -4.052308501809460E-09  -4.134170666857890E-09
  -4.217686556307947E-09  -4.302889577618672E-09  -4.389813813124427E-09
  -4.478494033668295E-09  -4.568965712510874E-09  -4.661265039520064E-09
  -4.755428935647490E-09  -4.851495067697368E-09  -4.949501863393726E-09
  -5.049488526752013E-09  -5.151495053761219E-09  -5.255562248382814E-09
  -5.361731738872867E-09  -5.470045994433904E-09  -5.580548342203151E-09
  -5.693282984583964E-09  -5.808295016927383E-09  -5.925630445570870E-09
  -6.045336206241459E-09  -6.167460182830671E-09  -6.292051226548695E-09
  -6.419159175465541E-09  -6.548834874446920E-09  -6.681130195492877E-09
  -6.816098058487260E-09  -6.953792452366397E-09  -7.094268456715372E-09
  -7.237582263800623E-09  -7.383791201047566E-09  -7.532953753972328E-09
  -7.685129589576747E-09  -7.840379580215965E-09  -7.998765827948167E-09
  -8.160351689376239E-09  -8.325201800991268E-09  -8.493382105027958E-09
  -8.664959875842437E-09  -8.840003746822876E-09  -9.018583737843779E-09
  -9.200771283274839E-09  -9.386639260555630E-09  -9.576262019347602E-09
  -9.769715411274885E-09  -9.967076820265954E-09  -1.016842519350828E-08
  -1.037384107302816E-08  -1.058340662790868E-08  -1.079720568715843E-08
  -1.101532377324417E-08  -1.123784813630104E-08  -1.146486778903368E-08
  -1.169647354232258E-08  -1.193275804154958E-08  -1.217381580365730E-08
  -1.241974325495713E-08  -1.267063876970104E-08  -1.292660270943267E-08
  -1.318773746313316E-08  -1.345414748817820E-08  -1.372593935212231E-08
  -1.400322177532732E-08  -1.428610567445194E-08  -1.457470420681990E-08
  -1.486913281568439E-08  -1.516950927640690E-08  -1.547595374356890E-08
  -1.578858879903529E-08  -1.610753950098880E-08  -1.643293343395488E-08
  -1.676490075983727E-08  -1.710357426998440E-08  -1.744908943830778E-08
  -1.780158447547334E-08  -1.816120038418747E-08  -1.852808101560010E-08
  -1.890237312684695E-08  -1.928422643975438E-08  -1.967379370073017E-08
  -2.007123074186405E-08  -2.047669654326256E-08  -2.089035329664330E-08
  -2.131236647021375E-08  -2.174290487486068E-08  -2.218214073167689E-08
  -2.263024974085175E-08  -2.308741115195376E-08  -2.355380783563268E-08
  -2.402962635677024E-08  -2.451505704910858E-08  -2.501029409138626E-08
  -2.551553558501233E-08  -2.603098363330955E-08  -2.655684442235835E-08
  -2.709332830347406E-08  -2.764064987735018E-08  -2.819902807990154E-08
  -2.876868626984154E-08  -2.934985231802867E-08  -2.994275869861773E-08
  -3.054764258205273E-08  -3.116474592993815E-08  -3.179431559182675E-08
  -3.243660340396275E-08  -3.309186629001964E-08  -3.376036636387290E-08
  -3.444237103444935E-08  -3.513815311269393E-08  -3.584799092069799E-08
  -3.657216840303158E-08  -3.731097524032517E-08  -3.806470696514564E-08
  -3.883366508021331E-08  -3.961815717900702E-08  -4.041849706880551E-08
  -4.123500489621460E-08  -4.206800727523004E-08  -4.291783741788740E-08
  -4.378483526755124E-08  -4.466934763489708E-08  -4.557172833664017E-08
  -4.649233833706696E-08  -4.743154589242545E-08  -4.838972669823267E-08
  -4.936726403955770E-08  -5.036454894434109E-08  -5.138198033981077E-08
  -5.241996521205860E-08  -5.347891876884003E-08  -5.455926460566263E-08
  -5.566143487522994E-08  -5.678587046030830E-08  -5.793302115008571E-08
  -5.910334582009358E-08  -6.029731261576289E-08  -6.151539913968847E-08
  -6.275809264267642E-08  -6.402589021865092E-08  -6.531929900349813E-08
  -6.663883637792776E-08  -6.798503017443149E-08  -6.935841888842342E-08
  -7.075955189364511E-08  -7.218898966192239E-08  -7.364730398736149E-08
  -7.513507821507419E-08  -7.665290747452350E-08  -7.820139891758337E-08
  -7.978117196140745E-08  -8.139285853620368E-08  -8.303710333801535E-08
  -8.471456408660778E-08  -8.642591178856448E-08  -8.817183100569896E-08
  -8.995302012888852E-08  -9.177019165743948E-08  -9.362407248409663E-08
  -9.551540418580923E-08  -9.744494332037241E-08  -9.941346172905948E-08
  -1.014217468453689E-07  -1.034706020100081E-07  -1.055608467922399E-07
  -1.076933173177211E-07  -1.098688666029640E-07  -1.120883648965538E-07
  -1.143527000272596E-07  -1.166627777591774E-07  -1.190195221540479E-07
  -1.214238759408927E-07  -1.238768008931187E-07  -1.263792782132400E-07
  -1.289323089253714E-07  -1.315369142756517E-07  -1.341941361407543E-07
  -1.369050374446530E-07  -1.396707025838043E-07  -1.424922378609207E-07
  -1.453707719275057E-07  -1.483074562353296E-07  -1.513034654970247E-07
  -1.543599981559861E-07  -1.574782768657640E-07  -1.606595489791417E-07
  -1.639050870470928E-07  -1.672161893278173E-07  -1.705941803060627E-07
  -1.740404112229349E-07  -1.775562606164112E-07  -1.811431348727748E-07
  -1.848024687891858E-07  -1.885357261476202E-07  -1.923444003004008E-07
  -1.962300147675576E-07  -2.001941238462553E-07  -2.042383132325323E-07
  -2.083642006555998E-07  -2.125734365249533E-07  -2.168677045905591E-07
  -2.212487226163749E-07  -2.257182430674780E-07  -2.302780538110738E-07
  -2.349299788316645E-07  -2.396758789606683E-07  -2.445176526207739E-07
  -2.494572365853348E-07  -2.544966067531035E-07  -2.596377789386154E-07
  -2.648828096785415E-07  -2.702337970543280E-07  -2.756928815314569E-07
  -2.812622468156583E-07  -2.869441207264215E-07  -2.927407760881497E-07
  -2.986545316393202E-07  -3.046877529600078E-07  -3.108428534181483E-07
  -3.171222951349150E-07  -3.235285899695986E-07  -3.300643005243819E-07
  -3.367320411694144E-07  -3.435344790885921E-07  -3.504743353464651E-07
  -3.575543859766975E-07  -3.647774630925155E-07  -3.721464560195884E-07
  -3.796643124517951E-07  -3.873340396303388E-07  -3.951587055466797E-07
  -4.031414401697717E-07  -4.112854366980872E-07  -4.195939528369367E-07
  -4.280703121015920E-07  -4.367179051467330E-07  -4.455401911227515E-07
  -4.545406990594535E-07  -4.637230292777159E-07  -4.730908548296581E-07
  -4.826479229679082E-07  -4.923980566445502E-07  -5.023451560403513E-07
  -5.124932001248826E-07  -5.228462482481559E-07  -5.334084417644114E-07
  -5.441840056887103E-07  -5.551772503869936E-07  -5.663925733002781E-07
  -5.778344607036872E-07  -5.895074895010166E-07  -6.014163290555478E-07
  -6.135657430578523E-07  -6.259605914313243E-07  -6.386058322762067E-07
  -6.515065238528897E-07  -6.646678266052786E-07  -6.780950052250297E-07
  -6.917934307574905E-07  -7.057685827501803E-07  -7.200260514446744E-07
  -7.345715400127658E-07  -7.494108668378017E-07  -7.645499678421029E-07
  -7.799948988614052E-07  -7.957518380672614E-07  -8.118270884383806E-07
  -8.282270802818954E-07  -8.449583738055561E-07  -8.620276617418905E-07
  -8.794417720253730E-07  -8.972076705236771E-07  -9.153324638240986E-07
  -9.338234020762737E-07  -9.526878818923193E-07  -9.719334493055628E-07
  -9.915678027890360E-07  -1.011598796334954E-06  -1.032034442596397E-06
  -1.052882916092460E-06  -1.074152556478153E-06  -1.095851871880352E-06
  -1.117989542301142E-06  -1.140574423089913E-06  -1.163615548485597E-06
  -1.187122135230459E-06  -1.211103586256897E-06  -1.235569494448705E-06
  -1.260529646478338E-06  -1.285994026721678E-06  -1.311972821251895E-06
  -1.338476421913980E-06  -1.365515430481588E-06  -1.393100662897858E-06
  -1.421243153601906E-06  -1.449954159942707E-06  -1.479245166682149E-06
  -1.509127890589061E-06  -1.539614285126024E-06  -1.570716545230890E-06
  -1.602447112194865E-06  -1.634818678639157E-06  -1.667844193592140E-06
  -1.701536867669092E-06  -1.735910178356576E-06  -1.770977875403549E-06
  -1.806753986321403E-06  -1.843252821995089E-06  -1.880488982407616E-06
  -1.918477362480168E-06  -1.957233158030212E-06  -1.996771871849961E-06
  -2.037109319907636E-06  -2.078261637673982E-06  -2.120245286576602E-06
  -2.163077060584674E-06  -2.206774092926676E-06  -2.251353862943827E-06
  -2.296834203081965E-06  -2.343233306024681E-06  -2.390569731970531E-06
  -2.438862416057270E-06  -2.488130675936049E-06  -2.538394219498645E-06
  -2.589673152760756E-06  -2.641987987904563E-06  -2.695359651483762E-06
  -2.749809492794324E-06  -2.805359292414389E-06  -2.862031270916638E-06
  -2.919848097756683E-06  -2.978832900341009E-06  -3.039009273278081E-06
  -3.100401287816359E-06  -3.163033501472939E-06  -3.226930967856722E-06
  -3.292119246690015E-06  -3.358624414032575E-06  -3.426473072712181E-06
  -3.495692362965922E-06  -3.566309973296451E-06  -3.638354151547522E-06
  -3.711853716203286E-06  -3.786838067915835E-06  -3.863337201265600E-06
  -3.941381716759336E-06  -4.021002833070460E-06  -4.102232399526661E-06
  -4.185102908849772E-06  -4.269647510152988E-06  -4.355900022200636E-06
  -4.443894946935811E-06  -4.533667483281256E-06  -4.625253541219085E-06
  -4.718689756154866E-06  -4.814013503571890E-06  -4.911262913981449E-06
  -5.010476888175171E-06  -5.111695112785391E-06  -5.214958076159907E-06
  -5.320307084557374E-06  -5.427784278669903E-06  -5.537432650479353E-06
  -5.649296060454204E-06  -5.763419255093757E-06  -5.879847884826780E-06
  -5.998628522271695E-06  -6.119808680865618E-06  -6.243436833869720E-06
  -6.369562433758518E-06  -6.498235932000820E-06  -6.629508799240280E-06
  -6.763433545883564E-06  -6.900063743104449E-06  -7.039454044272169E-06
  -7.181660206812661E-06  -7.326739114511375E-06  -7.474748800266641E-06
  -7.625748469302627E-06  -7.779798522851255E-06  -7.936960582312418E-06
  -8.097297513902283E-06  -8.260873453799530E-06  -8.427753833799462E-06
  -8.598005407486416E-06  -8.771696276934788E-06  -8.948895919949470E-06
  -9.129675217856518E-06  -9.314106483855185E-06  -9.502263491942686E-06
  -9.694221506423251E-06  -9.890057312013196E-06  -1.008984924455419E-05
  -1.029367722234687E-05  -1.050162277811741E-05  -1.071376909162982E-05
  -1.093020102295699E-05  -1.115100514642377E-05  -1.137626978523575E-05
  -1.160608504680752E-05  -1.184054285880444E-05  -1.207973700591266E-05
  -1.232376316735159E-05  -1.257271895514437E-05  -1.282670395316122E-05
  -1.308581975695150E-05  -1.335017001438036E-05  -1.361986046708618E-05
  -1.389499899277548E-05  -1.417569564837212E-05  -1.446206271403808E-05
  -1.475421473808343E-05  -1.505226858278347E-05  -1.535634347112129E-05
  -1.566656103447449E-05  -1.598304536126517E-05  -1.630592304659258E-05
  -1.663532324286827E-05  -1.697137771147401E-05  -1.731422087546316E-05
  -1.766398987332656E-05  -1.802082461384438E-05  -1.838486783204596E-05
  -1.875626514629986E-05  -1.913516511655721E-05  -1.952171930377124E-05
  -1.991608233051733E-05  -2.031841194283712E-05  -2.072886907333204E-05
  -2.114761790553114E-05  -2.157482593955896E-05  -2.201066405912983E-05
  -2.245530659989536E-05  -2.290893141917233E-05  -2.337171996707903E-05
  -2.384385735910825E-05  -2.432553245016637E-05  -2.481693791010747E-05
  -2.531827030079347E-05  -2.582973015471034E-05  -2.635152205517245E-05
  -2.688385471814658E-05  -2.742694107572878E-05  -2.798099836130711E-05
  -2.854624819644443E-05  -2.912291667951609E-05  -2.971123447613759E-05
  -3.031143691141885E-05  -3.092376406408164E-05  -3.154846086247779E-05
  -3.218577718254681E-05  -3.283596794775165E-05  -3.349929323103314E-05
  -3.417601835882341E-05  -3.486641401715987E-05  -3.557075635994235E-05
  -3.628932711937657E-05  -3.702241371864837E-05  -3.777030938687322E-05
  -3.853331327636732E-05  -3.931173058228676E-05  -4.010587266468359E-05
  -4.091605717302603E-05  -4.174260817323397E-05  -4.258585627727958E-05
  -4.344613877540561E-05  -4.432379977101331E-05  -4.521919031827498E-05
  -4.613266856252501E-05  -4.706459988348628E-05  -4.801535704138903E-05
  -4.898532032604029E-05  -4.997487770890364E-05  -5.098442499825027E-05
  -5.201436599744278E-05  -5.306511266641552E-05  -5.413708528641584E-05
  -5.523071262807176E-05  -5.634643212285367E-05  -5.748469003799831E-05
  -5.864594165496483E-05  -5.983065145149440E-05  -6.103929328734621E-05
  -6.227235059378369E-05  -6.353031656688673E-05  -6.481369436476771E-05
  -6.612299730876927E-05  -6.745874908872447E-05  -6.882148397236193E-05
  -7.021174701893858E-05  -7.163009429718610E-05  -7.307709310765767E-05
  -7.455332220956426E-05  -7.605937205219057E-05  -7.759584501098334E-05
  -7.916335562840631E-05  -8.076253085965777E-05  -8.239401032334901E-05
  -8.405844655724400E-05  -8.575650527916178E-05  -8.748886565314644E-05
  -8.925622056101023E-05  -9.105927687935877E-05  -9.289875576220909E-05
  -9.477539292931258E-05  -9.668993896029860E-05  -9.864315959475595E-05
  -1.006358360383720E-04  -1.026687652752513E-04  -1.047427603865395E-04
  -1.068586508754775E-04  -1.090172829990188E-04  -1.112195201061393E-04
  -1.134662429829756E-04  -1.157583502049310E-04  -1.180967584958875E-04
  -1.204824030946678E-04  -1.229162381288949E-04  -1.253992369963962E-04
  -1.279323927543058E-04  -1.305167185160197E-04  -1.331532478561626E-04
  -1.358430352237269E-04  -1.385871563635499E-04  -1.413867087462968E-04
  -1.442428120071201E-04  -1.471566083931716E-04  -1.501292632201452E-04
  -1.531619653380317E-04  -1.562559276062723E-04  -1.594123873784991E-04
  -1.626326069970576E-04  -1.659178742975063E-04  -1.692695031232956E-04
  -1.726888338508309E-04  -1.761772339251297E-04  -1.797360984062856E-04
  -1.833668505269551E-04  -1.870709422610944E-04  -1.908498549041664E-04
  -1.947050996650547E-04  -1.986382182699167E-04  -2.026507835782163E-04
  -2.067444002111848E-04  -2.109207051929581E-04  -2.151813686046436E-04
  -2.195280942515807E-04  -2.239626203440590E-04  -2.284867201917646E-04
  -2.331022029122313E-04  -2.378109141535806E-04  -2.426147368318338E-04
  -2.475155918830943E-04  -2.525154390308959E-04  -2.576162775690248E-04
  -2.628201471601244E-04  -2.681291286504019E-04  -2.735453449007621E-04
  -2.790709616346951E-04  -2.847081883032588E-04  -2.904592789674965E-04
  -2.963265331986455E-04  -3.023122969964888E-04  -3.084189637262179E-04
  -3.146489750741785E-04  -3.210048220228785E-04  -3.274890458456469E-04
  -3.341042391213360E-04  -3.408530467694724E-04  -3.477381671062663E-04
  -3.547623529218994E-04  -3.619284125795180E-04  -3.692392111363676E-04
  -3.766976714875152E-04  -3.843067755326102E-04  -3.920695653661519E-04
  -3.999891444917271E-04  -4.080686790607115E-04  -4.163113991359114E-04
  -4.247205999806617E-04  -4.332996433738765E-04  -4.420519589515858E-04
  -4.509810455754830E-04  -4.600904727290247E-04  -4.693838819416409E-04
  -4.788649882416139E-04  -4.885375816382062E-04  -4.984055286336183E-04
  -5.084727737653787E-04  -5.187433411797756E-04  -5.292213362369520E-04
  -5.399109471482986E-04  -5.508164466467923E-04  -5.619421936909413E-04
  -5.732926352030078E-04  -5.848723078421969E-04  -5.966858398135115E-04
  -6.087379527129872E-04  -6.210334634100360E-04  -6.335772859676411E-04
  -6.463744336011582E-04  -6.594300206765013E-04  -6.727492647484970E-04
  -6.863374886402085E-04  -7.002001225640551E-04  -7.143427062855589E-04
  -7.287708913305655E-04  -7.434904432368203E-04  -7.585072438507760E-04
  -7.738272936705382E-04  -7.894567142358699E-04  -8.054017505661966E-04
  -8.216687736475689E-04  -8.382642829695561E-04  -8.551949091130744E-04
  -8.724674163901608E-04  -8.900887055367276E-04  -9.080658164593542E-04
  -9.264059310371984E-04  -9.451163759801197E-04  -9.642046257441341E-04
  -9.836783055053521E-04  -1.003545194193541E-03  -1.023813227586527E-03
  -1.044490501466628E-03  -1.065585274840361E-03  -1.087105973222670E-03
  -1.109061191986976E-03  -1.131459699782332E-03  -1.154310442019039E-03
  -1.177622544424075E-03  -1.201405316667709E-03  -1.225668256062739E-03
  -1.250421051337767E-03  -1.275673586485996E-03  -1.301435944691049E-03
  -1.327718412331312E-03  -1.354531483064386E-03  -1.381885861993219E-03
  -1.409792469915519E-03  -1.438262447658136E-03  -1.467307160498050E-03
  -1.496938202671703E-03  -1.527167401974411E-03  -1.558006824451625E-03
  -1.589468779183877E-03  -1.621565823167238E-03  -1.654310766291178E-03
  -1.687716676415750E-03  -1.721796884550045E-03  -1.756564990133927E-03
  -1.792034866425058E-03  -1.828220665993309E-03  -1.865136826324639E-03
  -1.902798075536614E-03  -1.941219438207750E-03  -1.980416241322908E-03
  -2.020404120337026E-03  -2.061199025359484E-03  -2.102817227461500E-03
  -2.145275325108931E-03  -2.188590250722944E-03  -2.232779277371064E-03
  -2.277860025591125E-03  -2.323850470350725E-03  -2.370768948144842E-03
  -2.418634164234278E-03  -2.467465200027692E-03  -2.517281520609991E-03
  -2.568102982419965E-03  -2.619949841080011E-03  -2.672842759380944E-03
  -2.726802815424862E-03  -2.781851510929173E-03  -2.838010779694848E-03
  -2.895302996242116E-03  -2.953750984616828E-03  -3.013378027370759E-03
  -3.074207874719233E-03  -3.136264753879474E-03  -3.199573378593134E-03
  -3.264158958836604E-03  -3.330047210722634E-03  -3.397264366596979E-03
  -3.465837185333786E-03  -3.535792962833561E-03  -3.607159542727522E-03
  -3.679965327292349E-03  -3.754239288579275E-03  -3.830010979761659E-03
  -3.907310546705156E-03  -3.986168739764699E-03  -4.066616925812664E-03
  -4.148687100502524E-03  -4.232411900772464E-03  -4.317824617593506E-03
  -4.404959208966737E-03  -4.493850313174341E-03  -4.584533262289186E-03
  -4.677044095947836E-03  -4.771419575391940E-03  -4.867697197782959E-03
  -4.965915210795408E-03  -5.066112627493736E-03  -5.168329241498178E-03
  -5.272605642444890E-03  -5.378983231745879E-03  -5.487504238654237E-03
  -5.598211736640293E-03  -5.711149660084502E-03  -5.826362821292804E-03
  -5.943896927840344E-03  -6.063798600249722E-03  -6.186115390009678E-03
  -6.310895797940596E-03  -6.438189292912989E-03  -6.568046330925449E-03
  -6.700518374548569E-03  -6.835657912741344E-03  -6.973518481046874E-03
  -7.114154682174094E-03  -7.257622206972459E-03  -7.403977855806616E-03
  -7.553279560338170E-03  -7.705586405721688E-03  -7.860958653222413E-03
  -8.019457763262980E-03  -8.181146418906753E-03  -8.346088549785391E-03
  -8.514349356478343E-03  -8.685995335352309E-03  -8.861094303868363E-03
  -9.039715426365032E-03  -9.221929240325374E-03  -9.407807683136456E-03
  -9.597424119349470E-03  -9.790853368449100E-03  -9.988171733140736E-03
  -1.018945702816418E-02  -1.039478860964271E-02  -1.060424740497639E-02
  -1.081791594328867E-02  -1.103587838643539E-02  -1.125822056058544E-02
  -1.148502998838223E-02  -1.171639592169577E-02  -1.195240937497440E-02
  -1.219316315920617E-02  -1.243875191649938E-02  -1.268927215529215E-02
  -1.294482228620080E-02  -1.320550265851719E-02  -1.347141559736498E-02
  -1.374266544152477E-02  -1.401935858193875E-02  -1.430160350090458E-02
  -1.458951081196947E-02  -1.488319330053425E-02  -1.518276596517845E-02
  -1.548834605971655E-02  -1.580005313599614E-02  -1.611800908744855E-02
  -1.644233819340260E-02  -1.677316716417230E-02  -1.711062518692898E-02
  -1.745484397236877E-02  -1.780595780218612E-02  -1.816410357736410E-02
  -1.852942086729218E-02  -1.890205195972230E-02  -1.928214191157377E-02
  -1.966983860059783E-02  -2.006529277791243E-02  -2.046865812141773E-02
  -2.088009129010283E-02  -2.129975197925424E-02  -2.172780297657611E-02
  -2.216441021923272E-02  -2.260974285182322E-02  -2.306397328529830E-02
  -2.352727725682890E-02  -2.399983389063630E-02  -2.448182575979303E-02
  -2.497343894900392E-02  -2.547486311837599E-02  -2.598629156818594E-02
  -2.650792130465382E-02  -2.703995310673052E-02  -2.758259159390743E-02
  -2.813604529505511E-02  -2.870052671829841E-02  -2.927625242193419E-02
  -2.986344308639841E-02  -3.046232358728759E-02  -3.107312306944013E-02
  -3.169607502208219E-02  -3.233141735504179E-02  -3.297939247603497E-02
  -3.364024736902641E-02  -3.431423367366639E-02  -3.500160776580584E-02
  -3.570263083908956E-02  -3.641756898762696E-02  -3.714669328973980E-02
  -3.789027989278368E-02  -3.864861009904060E-02  -3.942197045267810E-02
  -4.021065282776889E-02  -4.101495451736539E-02  -4.183517832361988E-02
  -4.267163264894146E-02  -4.352463158817912E-02  -4.439449502181824E-02
  -4.528154871017667E-02  -4.618612438858474E-02  -4.710855986353224E-02
  -4.804919910976211E-02  -4.900839236829069E-02  -4.998649624533024E-02
  -5.098387381208889E-02  -5.200089470541973E-02  -5.303793522928881E-02
  -5.409537845702962E-02  -5.517361433434791E-02  -5.627303978303881E-02
  -5.739405880537510E-02  -5.853708258912151E-02  -5.970252961312805E-02
  -6.089082575345058E-02  -6.210240438994376E-02  -6.333770651326807E-02
  -6.459718083224818E-02  -6.588128388151465E-02  -6.719048012935963E-02
  -6.852524208572841E-02  -6.988605041026774E-02  -7.127339402034344E-02
  -7.268777019893688E-02  -7.412968470232288E-02  -7.559965186742636E-02
  -7.709819471874811E-02  -7.862584507474414E-02  -8.018314365353700E-02
  -8.177064017782747E-02  -8.338889347887134E-02  -8.503847159937451E-02
  -8.671995189515454E-02  -8.843392113540495E-02  -9.018097560139295E-02
  -9.196172118340773E-02  -9.377677347577054E-02  -9.562675786970380E-02
  -9.751230964384824E-02  -9.943407405220323E-02  -1.013927064092549E-01
  -1.033888721720443E-01  -1.054232470189123E-01  -1.074965169246465E-01
  -1.096093782317401E-01  -1.117625377174565E-01  -1.139567126563782E-01
  -1.161926308781019E-01  -1.184710308197243E-01  -1.207926615727432E-01
  -1.231582829239813E-01  -1.255686653901189E-01  -1.280245902453994E-01
  -1.305268495420530E-01  -1.330762461229554E-01  -1.356735936260191E-01
  -1.383197164797875E-01  -1.410154498896736E-01  -1.437616398142610E-01
  -1.465591429310523E-01  -1.494088265910223E-01  -1.523115687612996E-01
  -1.552682579552677E-01  -1.582797931493422E-01  -1.613470836856441E-01
  -1.644710491597504E-01  -1.676526192926643E-01  -1.708927337861078E-01
  -1.741923421601895E-01  -1.775524035724663E-01  -1.809738866173579E-01
  -1.844577691048349E-01  -1.880050378172427E-01  -1.916166882430754E-01
  -1.952937242864524E-01  -1.990371579509998E-01  -2.028480089967730E-01
  -2.067273045687960E-01  -2.106760787957317E-01  -2.146953723571229E-01
  -2.187862320175822E-01  -2.229497101262318E-01  -2.271868640796192E-01
  -2.314987557462626E-01  -2.358864508508934E-01  -2.403510183163852E-01
  -2.448935295612773E-01  -2.495150577507038E-01  -2.542166769984590E-01
  -2.589994615178367E-01  -2.638644847187843E-01  -2.688128182488211E-01
  -2.738455309750687E-01  -2.789636879046469E-01  -2.841683490405894E-01
  -2.894605681703268E-01  -2.948413915836881E-01  -3.003118567172713E-01
  -3.058729907219317E-01  -3.115258089500340E-01  -3.172713133590204E-01
  -3.231104908277492E-01  -3.290443113819626E-01  -3.350737263251643E-01
  -3.411996662710865E-01  -3.474230390738690E-01  -3.537447276519850E-01
  -3.601655877018999E-01  -3.666864452973940E-01  -3.733080943704385E-01
  -3.800312940694967E-01  -3.868567659911122E-01  -3.937851912806486E-01
  -4.008172075980868E-01  -4.079534059448286E-01  -4.151943273475481E-01
  -4.225404593952305E-01  -4.299922326256857E-01  -4.375500167580004E-01
  -4.452141167676164E-01  -4.529847688009748E-01  -4.608621359269914E-01
  -4.688463037229767E-01  -4.769372756930567E-01  -4.851349685176191E-01
  -4.934392071328771E-01  -5.018497196402688E-01  -5.103661320461218E-01
  -5.189879628328137E-01  -5.277146173635412E-01  -5.365453821238169E-01
  -5.454794188038926E-01  -5.545157582275296E-01  -5.636532941338589E-01
  -5.728907768205321E-01  -5.822268066579475E-01  -5.916598274860613E-01
  -6.011881199071488E-01  -6.108097944899156E-01  -6.205227849024949E-01
  -6.303248409942062E-01  -6.402135218484150E-01  -6.501861888314553E-01
  -6.602399986653644E-01  -6.703718965551129E-01  -6.805786094040804E-01
  -6.908566391547362E-01  -7.012022562948255E-01  -7.116114935727973E-01
  -7.220801399697352E-01  -7.326037349786562E-01  -7.431775632456681E-01
  -7.537966496311164E-01  -7.644557547524584E-01  -7.751493710741132E-01
  -7.858717196129412E-01  -7.966167473312211E-01  -8.073781252919174E-01
  -8.181492476536961E-01  -8.289232315853374E-01  -8.396929181809417E-01
  -8.504508744584799E-01  -8.611893965246670E-01  -8.719005139888151E-01
  -8.825759957070549E-01  -8.932073569360238E-01  -9.037858679716523E-01
  -9.143025643439573E-01  -9.247482586325450E-01  -9.351135539598623E-01
  -9.453888592097796E-01  -9.555644060079527E-01  -9.656302674872883E-01
  -9.755763788467442E-01  -9.853925596945248E-01  -9.950685381474175E-01
  -1.004593976636545E+00  -1.013958499346167E+00  -1.023151721186484E+00
  -1.032163278173596E+00  -1.040982859060276E+00  -1.049600238029954E+00
  -1.058005308233837E+00  -1.066188115917590E+00  -1.074138894850103E+00
  -1.081848100733048E+00  -1.089306445236953E+00  -1.096504929278209E+00
  -1.103434875122781E+00  -1.110087956877571E+00  -1.116456228910662E+00
  -1.122532151728786E+00  -1.128308614835853E+00  -1.133778956102514E+00
  -1.138936977195730E+00  -1.143776954651941E+00  -1.148293646230751E+00
  -1.152482292261487E+00  -1.156338611796758E+00  -1.159858793519629E+00
  -1.163039481519615E+00  -1.165877756263383E+00  -1.168371111345565E+00
  -1.170517426921408E+00  -1.172314941104751E+00  -1.173762221072363E+00
  -1.174858136160073E+00  -1.175601835988444E+00  -1.175992738256604E+00
  -1.176030528178277E+00  -1.175715160669909E+00  -1.175046862393220E+00
  -1.174026133454810E+00  -1.172653748766912E+00  -1.170930759073113E+00
  -1.168858491642393E+00  -1.166438550634004E+00  -1.163672817134715E+00
  -1.160563448868744E+00  -1.157112879579357E+00  -1.153323818079645E+00
  -1.149199246968482E+00  -1.144742421006058E+00  -1.139956865141854E+00
  -1.134846372186339E+00  -1.129415000116276E+00  -1.123667069002111E+00
  -1.117607157544830E+00  -1.111240099208690E+00  -1.104570977935522E+00
  -1.097605123426036E+00  -1.090348105973478E+00  -1.082805730835517E+00
  -1.074984032131083E+00  -1.066889266250328E+00  -1.058527904767908E+00
  -1.049906626852195E+00  -1.041032311165946E+00  -1.031912027258015E+00
  -1.022553026449662E+00  -1.012962732223532E+00  -1.003148730128611E+00
  -9.931187572198991E-01  -9.828806910571679E-01  -9.724425382930636E-01
  -9.618124228865800E-01  -9.509985739836837E-01  -9.400093135122851E-01
  -9.288530435438106E-01  -9.175382334781036E-01  -9.060734071122331E-01
  -8.944671296568210E-01  -8.827279947656579E-01  -8.708646116456358E-01
  -8.588855923141502E-01  -8.467995390704171E-01  -8.346150322453045E-01
  -8.223406182913691E-01  -8.099847982710404E-01  -7.975560167962771E-01
  -7.850626514675644E-01  -7.725130028540104E-01  -7.599152850496522E-01
  -7.472776168339975E-01  -7.346080134574658E-01  -7.219143790648779E-01
  -7.092044997625973E-01  -6.964860373275197E-01  -6.837665235489022E-01
  -6.710533551872017E-01  -6.583537895276885E-01  -6.456749405007824E-01
  -6.330237753358267E-01  -6.204071117105084E-01  -6.078316153543600E-01
  -5.953037980617977E-01  -5.828300160679981E-01  -5.704164687395978E-01
  -5.580691975317015E-01  -5.457940851630685E-01  -5.335968549624690E-01
  -5.214830703411638E-01  -5.094581343491132E-01  -4.975272892758594E-01
  -4.856956162609700E-01  -4.739680348833999E-01  -4.623493027040496E-01
  -4.508440147410479E-01  -4.394566028628205E-01  -4.281913350896532E-01
  -4.170523148001788E-01  -4.060434798448487E-01  -3.951686015739306E-01
  -3.844312837927686E-01  -3.738349616618876E-01  -3.633829005638712E-01
  -3.530781949627882E-01  -3.429237672851198E-01  -3.329223668536472E-01
  -3.230765689075021E-01  -3.133887737425050E-01  -3.038612060060048E-01
  -2.944959141796185E-01  -2.852947702815404E-01  -2.762594698174497E-01
  -2.673915320054571E-01  -2.586923002960920E-01  -2.501629432030467E-01
  -2.418044554543425E-01  -2.336176594669307E-01  -2.256032071406940E-01
  -2.177615819605450E-01  -2.100931013881485E-01  -2.025979195181166E-01
  -1.952760299676975E-01  -1.881272689644711E-01  -1.811513185937667E-01
  -1.743477101668351E-01  -1.677158276724944E-01  -1.612549112791802E-01
  -1.549640608609998E-01  -1.488422395302346E-01  -1.428882771692362E-01
  -1.371008739660777E-01  -1.314786039697422E-01  -1.260199186910455E-01
  -1.207231507839057E-01  -1.155865178471058E-01  -1.106081263886928E-01
  -1.057859759932907E-01  -1.011179637268872E-01  -9.660188880452528E-02
  -9.223545753449756E-02  -8.801628853912237E-02  -8.394191823816369E-02
  -8.000980656757140E-02  -7.621734289454814E-02  -7.256185208087747E-02
  -6.904060064052740E-02  -6.565080293502726E-02  -6.238962735092723E-02
  -5.925420240742163E-02  -5.624162274836433E-02  -5.334895498070002E-02
  -5.057324333000965E-02  -4.791151509266808E-02  -4.536078587240694E-02
  -4.291806459634914E-02  -4.058035831151233E-02  -3.834467676719533E-02
  -3.620803679155656E-02  -3.416746647218000E-02  -3.222000915070503E-02
  -3.036272724092808E-02  -2.859270587844397E-02  -2.690705640814607E-02
  -2.530291971398715E-02  -2.377746939351289E-02  -2.232791477796237E-02
  -2.095150379728428E-02  -1.964552568833319E-02  -1.840731354372857E-02
  -1.723424669842060E-02  -1.612375295097008E-02  -1.507331061671150E-02
  -1.408045041034622E-02  -1.314275715611137E-02  -1.225787132437312E-02
  -1.142349039428075E-02  -1.063737004294960E-02  -9.897325162483090E-03
  -9.201230706971597E-03  -8.547022372396684E-03  -7.932697113110560E-03
  -7.356313499239942E-03  -6.815991919975851E-03  -6.309914638251484E-03
  -5.836325702779193E-03  -5.393530723814400E-03  -4.979896519341845E-03
  -4.593850638640397E-03  -4.233880770380621E-03  -3.898534042548278E-03
  -3.586416221571332E-03  -3.296190818062140E-03  -3.026578106574642E-03
  -2.776354066723187E-03  -2.544349252918859E-03  -2.329447599855624E-03
  -2.130585170725790E-03  -1.946748854966198E-03  -1.776975022136963E-03
  -1.620348138316791E-03  -1.475999351166200E-03  -1.343105049565361E-03
  -1.220885403479417E-03  -1.108602889443568E-03  -1.005560806795031E-03
  -9.111017895111669E-04  -8.246063182441936E-04  -7.454912368743726E-04
  -6.732082776365541E-04  -6.072425986103279E-04  -5.471113371025386E-04
  -4.923621821932076E-04  -4.425719694622780E-04  -3.973453006655442E-04
   0.000000000000000E+00   0.000000000000000E+00   0.000000000000000E+00
   0.000000000000000E+00   0.000000000000000E+00   0.000000000000000E+00
   0.000000000000000E+00   0.000000000000000E+00   0.000000000000000E+00
   0.000000000000000E+00   0.000000000000000E+00   0.000000000000000E+00
   0.000000000000000E+00   0.000000000000000E+00   0.000000000000000E+00
   0.000000000000000E+00   0.000000000000000E+00   0.000000000000000E+00
   0.000000000000000E+00   0.000000000000000E+00   0.000000000000000E+00
   0.000000000000000E+00   0.000000000000000E+00   0.000000000000000E+00
   0.000000000000000E+00   0.000000000000000E+00   0.000000000000000E+00
   0.000000000000000E+00   0.000000000000000E+00   0.000000000000000E+00
   0.000000000000000E+00   0.000000000000000E+00   0.000000000000000E+00
   0.000000000000000E+00   0.000000000000000E+00   0.000000000000000E+00
   0.000000000000000E+00   0.000000000000000E+00   0.000000000000000E+00
   0.000000000000000E+00   0.000000000000000E+00   0.000000000000000E+00
   0.000000000000000E+00   0.000000000000000E+00   0.000000000000000E+00
   0.000000000000000E+00   0.000000000000000E+00   0.000000000000000E+00
   0.000000000000000E+00   0.000000000000000E+00   0.000000000000000E+00
   0.000000000000000E+00   0.000000000000000E+00   0.000000000000000E+00
   0.000000000000000E+00   0.000000000000000E+00   0.000000000000000E+00
   0.000000000000000E+00   0.000000000000000E+00   0.000000000000000E+00
   0.000000000000000E+00   0.000000000000000E+00   0.000000000000000E+00
   0.000000000000000E+00   0.000000000000000E+00   0.000000000000000E+00
   0.000000000000000E+00   0.000000000000000E+00   0.000000000000000E+00
   0.000000000000000E+00   0.000000000000000E+00   0.000000000000000E+00
   0.000000000000000E+00   0.000000000000000E+00   0.000000000000000E+00
   0.000000000000000E+00   0.000000000000000E+00   0.000000000000000E+00
   0.000000000000000E+00   0.000000000000000E+00   0.000000000000000E+00
   0.000000000000000E+00   0.000000000000000E+00   0.000000000000000E+00
   0.000000000000000E+00   0.000000000000000E+00   0.000000000000000E+00
   0.000000000000000E+00   0.000000000000000E+00   0.000000000000000E+00
   0.000000000000000E+00   0.000000000000000E+00   0.000000000000000E+00
   0.000000000000000E+00   0.000000000000000E+00   0.000000000000000E+00
   0.000000000000000E+00   0.000000000000000E+00   0.000000000000000E+00
   0.000000000000000E+00   0.000000000000000E+00   0.000000000000000E+00
   0.000000000000000E+00   0.000000000000000E+00   0.000000000000000E+00
   0.000000000000000E+00   0.000000000000000E+00   0.000000000000000E+00
   0.000000000000000E+00   0.000000000000000E+00   0.000000000000000E+00
   0.000000000000000E+00   0.000000000000000E+00   0.000000000000000E+00
   0.000000000000000E+00   0.000000000000000E+00   0.000000000000000E+00
   0.000000000000000E+00   0.000000000000000E+00   0.000000000000000E+00
   0.000000000000000E+00   0.000000000000000E+00   0.000000000000000E+00
   0.000000000000000E+00   0.000000000000000E+00   0.000000000000000E+00
   0.000000000000000E+00   0.000000000000000E+00   0.000000000000000E+00
   0.000000000000000E+00   0.000000000000000E+00   0.000000000000000E+00
   0.000000000000000E+00   0.000000000000000E+00   0.000000000000000E+00
   0.000000000000000E+00   0.000000000000000E+00   0.000000000000000E+00
   0.000000000000000E+00   0.000000000000000E+00   0.000000000000000E+00
   0.000000000000000E+00   0.000000000000000E+00   0.000000000000000E+00
   0.000000000000000E+00   0.000000000000000E+00   0.000000000000000E+00
   0.000000000000000E+00   0.000000000000000E+00   0.000000000000000E+00
   0.000000000000000E+00   0.000000000000000E+00   0.000000000000000E+00
   0.000000000000000E+00   0.000000000000000E+00   0.000000000000000E+00
   0.000000000000000E+00   0.000000000000000E+00   0.000000000000000E+00
   0.000000000000000E+00   0.000000000000000E+00   0.000000000000000E+00
   0.000000000000000E+00   0.000000000000000E+00   0.000000000000000E+00
   0.000000000000000E+00   0.000000000000000E+00   0.000000000000000E+00
   0.000000000000000E+00   0.000000000000000E+00   0.000000000000000E+00
   0.000000000000000E+00   0.000000000000000E+00   0.000000000000000E+00
   0.000000000000000E+00   0.000000000000000E+00   0.000000000000000E+00
   0.000000000000000E+00   0.000000000000000E+00   0.000000000000000E+00
   0.000000000000000E+00   0.000000000000000E+00   0.000000000000000E+00
   0.000000000000000E+00   0.000000000000000E+00   0.000000000000000E+00
   0.000000000000000E+00   0.000000000000000E+00   0.000000000000000E+00
   0.000000000000000E+00
        </PP_GIPAW_WFS_PS>
      </PP_GIPAW_ORBITAL.2>
      <PP_GIPAW_ORBITAL.3 index="3" label="4S" l="0" cutoff_radius="2.00000000000000" ultrasoft_cutoff_radius="2.00000000000000">
        <PP_GIPAW_WFS_AE size="1525">
   3.050647165021470E-04   3.081145459095792E-04   3.111948654357018E-04
   3.143059798999703E-04   3.174481847117383E-04   3.206217642509674E-04
   3.238270386685585E-04   3.270643230779300E-04   3.303339371000445E-04
   3.336362035404993E-04   3.369714484209261E-04   3.403400010109570E-04
   3.437421938605044E-04   3.471783628323545E-04   3.506488471350838E-04
   3.541539893562995E-04   3.576941354962085E-04   3.612696350015177E-04
   3.648808407996676E-04   3.685281093334056E-04   3.722118005956978E-04
   3.759322781649872E-04   3.796899092407986E-04   3.834850646796943E-04
   3.873181190315849E-04   3.911894505763978E-04   3.950994413611066E-04
   3.990484772371260E-04   4.030369478980753E-04   4.070652469179132E-04
   4.111337717894488E-04   4.152429239632315E-04   4.193931088868252E-04
   4.235847360446370E-04   4.278182189967610E-04   4.320939754165134E-04
   4.364124271433619E-04   4.407740002298493E-04   4.451791249403248E-04
   4.496282358337776E-04   4.541217718600530E-04   4.586601762715278E-04
   4.632438966723034E-04   4.678733851868122E-04   4.725490984651290E-04
   4.772714976921067E-04   4.820410485808881E-04   4.868582214362442E-04
   4.917234913810293E-04   4.966373382968274E-04   5.016002466896824E-04
   5.066127059339285E-04   5.116752102790017E-04   5.167882588316699E-04
   5.219523558331402E-04   5.271680104780019E-04   5.324357369099234E-04
   5.377560544682917E-04   5.431294876619938E-04   5.485565662314222E-04
   5.540378251507873E-04   5.595738046927373E-04   5.651650505282805E-04
   5.708121137730732E-04   5.765155510463996E-04   5.822759245392909E-04
   5.880938019267688E-04   5.939697565023300E-04   5.999043673477991E-04
   6.058982192476313E-04   6.119519028173855E-04   6.180660146199181E-04
   6.242411571165069E-04   6.304779386440120E-04   6.367769736283289E-04
   6.431388826691159E-04   6.495642925481676E-04   6.560538361746245E-04
   6.626081527227304E-04   6.692278879109234E-04   6.759136938081421E-04
   6.826662287815190E-04   6.894861578377787E-04   6.963741527154359E-04
   7.033308917664317E-04   7.103570600435942E-04   7.174533493062942E-04
   7.246204581821010E-04   7.318590924165821E-04   7.391699647901011E-04
   7.465537950791293E-04   7.540113101454718E-04   7.615432440757838E-04
   7.691503383130268E-04   7.768333416241122E-04   7.845930100725274E-04
   7.924301073453813E-04   8.003454048002937E-04   8.083396814441522E-04
   8.164137239529254E-04   8.245683267768161E-04   8.328042923004462E-04
   8.411224307983165E-04   8.495235605407369E-04   8.580085080482331E-04
   8.665781080827684E-04   8.752332035371605E-04   8.839746457388119E-04
   8.928032944784645E-04   9.017200180594209E-04   9.107256933797593E-04
   9.198212059215749E-04   9.290074500520700E-04   9.382853291028463E-04
   9.476557552880336E-04   9.571196498077902E-04   9.666779429363075E-04
   9.763315743310150E-04   9.860814929470840E-04   9.959286569719841E-04
   1.005874034179175E-03   1.015918602014589E-03   1.026063347553273E-03
   1.036309267617555E-03   1.046657368988668E-03   1.057108668384199E-03
   1.067664192404229E-03   1.078324977842264E-03   1.089092071921438E-03
   1.099966532242828E-03   1.110949426925958E-03   1.122041834614163E-03
   1.133244844490821E-03   1.144559556546568E-03   1.155987081716963E-03
   1.167528541919958E-03   1.179185070205233E-03   1.190957810776253E-03
   1.202847919014800E-03   1.214856561864665E-03   1.226984917915471E-03
   1.239234177349071E-03   1.251605542136171E-03   1.264100226093605E-03
   1.276719454941862E-03   1.289464466554235E-03   1.302336511098320E-03
   1.315336851042744E-03   1.328466761323814E-03   1.341727529486265E-03
   1.355120455846566E-03   1.368646853504231E-03   1.382308048499538E-03
   1.396105379969696E-03   1.410040200259742E-03   1.424113875164492E-03
   1.438327783911445E-03   1.452683319294669E-03   1.467181887941479E-03
   1.481824910325001E-03   1.496613820783699E-03   1.511550067831503E-03
   1.526635114323375E-03   1.541870437558740E-03   1.557257529462069E-03
   1.572797896585281E-03   1.588493060323964E-03   1.604344557113867E-03
   1.620353938480734E-03   1.636522771150461E-03   1.652852637403596E-03
   1.669345135116714E-03   1.686001877787086E-03   1.702824494853761E-03
   1.719814631796011E-03   1.736973950253285E-03   1.754304128202664E-03
   1.771806860185863E-03   1.789483857475651E-03   1.807336848114331E-03
   1.825367577047594E-03   1.843577806424978E-03   1.861969315752440E-03
   1.880543901999747E-03   1.899303379789563E-03   1.918249581552457E-03
   1.937384357759925E-03   1.956709577051885E-03   1.976227126388618E-03
   1.995938911273971E-03   2.015846855920360E-03   2.035952903404629E-03
   2.056259015833394E-03   2.076767174616673E-03   2.097479380599823E-03
   2.118397654209903E-03   2.139524035703271E-03   2.160860585327563E-03
   2.182409383519978E-03   2.204172531097477E-03   2.226152149457623E-03
   2.248350380775100E-03   2.270769388198535E-03   2.293411356059837E-03
   2.316278490073603E-03   2.339373017518779E-03   2.362697187452976E-03
   2.386253270946650E-03   2.410043561282233E-03   2.434070374167296E-03
   2.458336047938512E-03   2.482842943754419E-03   2.507593445863033E-03
   2.532589961809170E-03   2.557834922626565E-03   2.583330783077867E-03
   2.609080021883782E-03   2.635085141983234E-03   2.661348670719195E-03
   2.687873160063188E-03   2.714661186867643E-03   2.741715353100838E-03
   2.769038286122277E-03   2.796632638874929E-03   2.824501090122415E-03
   2.852646344725227E-03   2.881071133868241E-03   2.909778215322212E-03
   2.938770373720704E-03   2.968050420773444E-03   2.997621195443416E-03
   3.027485564330339E-03   3.057646421968520E-03   3.088106690978581E-03
   3.118869322297511E-03   3.149937295525430E-03   3.181313619228342E-03
   3.213001331111920E-03   3.245003498360362E-03   3.277323217988255E-03
   3.309963616991593E-03   3.342927852587284E-03   3.376219112622913E-03
   3.409840615906606E-03   3.443795612371652E-03   3.478087383351941E-03
   3.512719241968327E-03   3.547694533371435E-03   3.583016635057234E-03
   3.618688957165250E-03   3.654714942782776E-03   3.691098068251398E-03
   3.727841843476076E-03   3.764949812236773E-03   3.802425552502856E-03
   3.840272676750140E-03   3.878494832278240E-03   3.917095701545986E-03
   3.956079002547528E-03   3.995448489060915E-03   4.035207950840566E-03
   4.075361214225920E-03   4.115912142453921E-03   4.156864635702469E-03
   4.198222631643219E-03   4.239990105803398E-03   4.282171071878708E-03
   4.324769582229534E-03   4.367789727967876E-03   4.411235639370107E-03
   4.455111486540870E-03   4.499421479444780E-03   4.544169868275097E-03
   4.589360943980467E-03   4.634999038541281E-03   4.681088525372974E-03
   4.727633819697287E-03   4.774639378922703E-03   4.822109703027010E-03
   4.870049334942914E-03   4.918462860946956E-03   4.967354911051375E-03
   5.016730159399066E-03   5.066593324661680E-03   5.116949170440825E-03
   5.167802505672404E-03   5.219158185034110E-03   5.271021109356074E-03
   5.323396226034705E-03   5.376288529449702E-03   5.429703061384287E-03
   5.483644911448642E-03   5.538119217506586E-03   5.593131166105484E-03
   5.648685992909501E-03   5.704788983136096E-03   5.761445471995636E-03
   5.818660845134303E-03   5.876440539077060E-03   5.934790041697273E-03
   5.993714892745842E-03   6.053220684200676E-03   6.113313060559704E-03
   6.173997719612773E-03   6.235280412717912E-03   6.297166945110082E-03
   6.359663176775294E-03   6.422775022872989E-03   6.486508454001164E-03
   6.550869496906699E-03   6.615864234825220E-03   6.681498807804722E-03
   6.747779413487432E-03   6.814712307456553E-03   6.882303803782207E-03
   6.950560275516992E-03   7.019488155203575E-03   7.089093935385492E-03
   7.159384169121204E-03   7.230365470501474E-03   7.302044515170336E-03
   7.374428040849423E-03   7.447522847865769E-03   7.521335799683023E-03
   7.595873823436134E-03   7.671143910469432E-03   7.747153116878174E-03
   7.823908564053499E-03   7.901417439230804E-03   7.979686996041551E-03
   8.058724555068475E-03   8.138537504404193E-03   8.219133300213226E-03
   8.300519467297382E-03   8.382703599664540E-03   8.465693361100793E-03
   8.549496485745928E-03   8.634120778672287E-03   8.719574116466915E-03
   8.805864447817051E-03   8.892999794098893E-03   8.980988249969677E-03
   9.069837983962980E-03   9.159557239087296E-03   9.250154333427820E-03
   9.341637660751443E-03   9.434015691114916E-03   9.527296971476182E-03
   9.621490126308824E-03   9.716603858219619E-03   9.812646948569179E-03
   9.909628258095616E-03   1.000755672754124E-02   1.010644137828223E-02
   1.020629131296123E-02   1.030711571612293E-02   1.040892385485241E-02
   1.051172507941644E-02   1.061552882390745E-02   1.072034460689039E-02
   1.082618203205219E-02   1.093305078885391E-02   1.104096065318557E-02
   1.114992148802345E-02   1.125994324408996E-02   1.137103596051598E-02
   1.148320976550559E-02   1.159647487700332E-02   1.171084160336378E-02
   1.182632034401839E-02   1.194292159017404E-02   1.206065592561047E-02
   1.217953402727130E-02   1.229956666557721E-02   1.242076470520655E-02
   1.254313910595719E-02   1.266670092387401E-02   1.279146131183320E-02
   1.291743151952862E-02   1.304462289452833E-02   1.317304688308974E-02
   1.330271503071676E-02   1.343363898290400E-02   1.356583048582297E-02
   1.369930138701859E-02   1.383406363610603E-02   1.397012928546851E-02
   1.410751049095566E-02   1.424621951258240E-02   1.438626871522845E-02
   1.452767056933798E-02   1.467043765161962E-02   1.481458264574649E-02
   1.496011834305619E-02   1.510705764325061E-02   1.525541355509543E-02
   1.540519919711917E-02   1.555642779831160E-02   1.570911269882142E-02
   1.586326735065300E-02   1.601890531836207E-02   1.617604027975020E-02
   1.633468602655778E-02   1.649485646515558E-02   1.665656561723438E-02
   1.681982762049282E-02   1.698465672932304E-02   1.715106731549405E-02
   1.731907386883256E-02   1.748869099790114E-02   1.765993343067346E-02
   1.783281601520635E-02   1.800735372030860E-02   1.818356163620610E-02
   1.836145497520331E-02   1.854104907234055E-02   1.872235938604716E-02
   1.890540149879001E-02   1.909019111771742E-02   1.927674407529782E-02
   1.946507632995339E-02   1.965520396668786E-02   1.984714319770872E-02
   2.004091036304312E-02   2.023652193114748E-02   2.043399449951028E-02
   2.063334479524793E-02   2.083458967569327E-02   2.103774612897635E-02
   2.124283127459736E-02   2.144986236399112E-02   2.165885678108300E-02
   2.186983204283580E-02   2.208280579978719E-02   2.229779583657755E-02
   2.251482007246761E-02   2.273389656184555E-02   2.295504349472330E-02
   2.317827919722151E-02   2.340362213204278E-02   2.363109089893280E-02
   2.386070423512893E-02   2.409248101579570E-02   2.432644025444704E-02
   2.456260110335440E-02   2.480098285394059E-02   2.504160493715878E-02
   2.528448692385609E-02   2.552964852512136E-02   2.577710959261654E-02
   2.602689011889122E-02   2.627901023767966E-02   2.653349022417993E-02
   2.679035049531451E-02   2.704961160997169E-02   2.731129426922744E-02
   2.757541931654688E-02   2.784200773796487E-02   2.811108066224522E-02
   2.838265936101754E-02   2.865676524889155E-02   2.893341988354772E-02
   2.921264496580393E-02   2.949446233965728E-02   2.977889399230034E-02
   3.006596205411128E-02   3.035568879861689E-02   3.064809664242806E-02
   3.094320814514663E-02   3.124104600924313E-02   3.154163307990440E-02
   3.184499234485038E-02   3.215114693411928E-02   3.246012011982014E-02
   3.277193531585212E-02   3.308661607758950E-02   3.340418610153152E-02
   3.372466922491623E-02   3.404808942529731E-02   3.437447082008303E-02
   3.470383766603628E-02   3.503621435873470E-02   3.537162543199009E-02
   3.571009555722574E-02   3.605164954281095E-02   3.639631233335153E-02
   3.674410900893527E-02   3.709506478433110E-02   3.744920500814115E-02
   3.780655516190420E-02   3.816714085914968E-02   3.853098784440071E-02
   3.889812199212532E-02   3.926856930563432E-02   3.964235591592475E-02
   4.001950808046754E-02   4.040005218193811E-02   4.078401472688865E-02
   4.117142234436062E-02   4.156230178443609E-02   4.195667991672676E-02
   4.235458372879891E-02   4.275604032453301E-02   4.316107692241653E-02
   4.356972085376843E-02   4.398199956089372E-02   4.439794059516668E-02
   4.481757161504103E-02   4.524092038398558E-02   4.566801476834351E-02
   4.609888273511398E-02   4.653355234965389E-02   4.697205177329859E-02
   4.741440926089931E-02   4.786065315827596E-02   4.831081189958322E-02
   4.876491400458802E-02   4.922298807585695E-02   4.968506279585115E-02
   5.015116692392727E-02   5.062132929324207E-02   5.109557880755908E-02
   5.157394443795500E-02   5.205645521942386E-02   5.254314024737705E-02
   5.303402867403663E-02   5.352914970472031E-02   5.402853259401557E-02
   5.453220664184068E-02   5.504020118939051E-02   5.555254561496491E-02
   5.606926932967688E-02   5.659040177303879E-02   5.711597240842375E-02
   5.764601071839994E-02   5.818054619993529E-02   5.871960835947019E-02
   5.926322670785543E-02   5.981143075515299E-02   6.036425000529694E-02
   6.092171395061188E-02   6.148385206618607E-02   6.205069380409674E-02
   6.262226858748457E-02   6.319860580447470E-02   6.377973480194134E-02
   6.436568487911305E-02   6.495648528101587E-02   6.555216519175126E-02
   6.615275372760585E-02   6.675827992998988E-02   6.736877275820144E-02
   6.798426108201318E-02   6.860477367407838E-02   6.923033920215325E-02
   6.986098622113211E-02   7.049674316489220E-02   7.113763833794486E-02
   7.178369990688953E-02   7.243495589166746E-02   7.309143415661130E-02
   7.375316240128749E-02   7.442016815112752E-02   7.509247874784486E-02
   7.577012133963373E-02   7.645312287114607E-02   7.714151007324320E-02
   7.783530945251825E-02   7.853454728058566E-02   7.923924958313400E-02
   7.994944212873831E-02   8.066515041742787E-02   8.138639966900581E-02
   8.211321481111623E-02   8.284562046705539E-02   8.358364094332216E-02
   8.432730021690452E-02   8.507662192229754E-02   8.583162933824867E-02
   8.659234537422651E-02   8.735879255660860E-02   8.813099301458406E-02
   8.890896846576705E-02   8.969274020151641E-02   9.048232907195740E-02
   9.127775547070134E-02   9.207903931925834E-02   9.288620005113921E-02
   9.369925659564182E-02   9.451822736131771E-02   9.534313021911421E-02
   9.617398248518808E-02   9.701080090338528E-02   9.785360162738363E-02
   9.870240020249264E-02   9.955721154710666E-02   1.004180499338065E-01
   1.012849289701053E-01   1.021578615788335E-01   1.030368599781588E-01
   1.039219356612366E-01   1.048130993754859E-01   1.057103611014861E-01
   1.066137300314910E-01   1.075232145475540E-01   1.084388221992610E-01
   1.093605596810661E-01   1.102884328092257E-01   1.112224464983262E-01
   1.121626047374005E-01   1.131089105656300E-01   1.140613660476264E-01
   1.150199722482894E-01   1.159847292072356E-01   1.169556359127951E-01
   1.179326902755699E-01   1.189158891015516E-01   1.199052280647925E-01
   1.209007016796274E-01   1.219023032724407E-01   1.229100249529759E-01
   1.239238575851820E-01   1.249437907575943E-01   1.259698127532457E-01
   1.270019105191027E-01   1.280400696350253E-01   1.290842742822451E-01
   1.301345072113587E-01   1.311907497098332E-01   1.322529815690202E-01
   1.333211810506752E-01   1.343953248529796E-01   1.354753880760614E-01
   1.365613441870131E-01   1.376531649844032E-01   1.387508205622786E-01
   1.398542792736568E-01   1.409635076935035E-01   1.420784705811965E-01
   1.431991308424705E-01   1.443254494908440E-01   1.454573856085258E-01
   1.465948963067988E-01   1.477379366858817E-01   1.488864597942667E-01
   1.500404165875321E-01   1.511997558866308E-01   1.523644243356535E-01
   1.535343663590662E-01   1.547095241184239E-01   1.558898374685596E-01
   1.570752439132504E-01   1.582656785603616E-01   1.594610740764698E-01
   1.606613606409679E-01   1.618664658996534E-01   1.630763149178023E-01
   1.642908301327319E-01   1.655099313058564E-01   1.667335354742362E-01
   1.679615569016287E-01   1.691939070290419E-01   1.704304944247972E-01
   1.716712247341053E-01   1.729160006281633E-01   1.741647217527759E-01
   1.754172846765097E-01   1.766735828383875E-01   1.779335064951285E-01
   1.791969426679446E-01   1.804637750889000E-01   1.817338841468446E-01
   1.830071468329288E-01   1.842834366857135E-01   1.855626237358820E-01
   1.868445744505697E-01   1.881291516773201E-01   1.894162145876826E-01
   1.907056186204641E-01   1.919972154246495E-01   1.932908528020050E-01
   1.945863746493814E-01   1.958836209007322E-01   1.971824274688648E-01
   1.984826261869417E-01   1.997840447497519E-01   2.010865066547703E-01
   2.023898311430269E-01   2.036938331398066E-01   2.049983231952012E-01
   2.063031074245375E-01   2.076079874487055E-01   2.089127603344101E-01
   2.102172185343748E-01   2.115211498275210E-01   2.128243372591546E-01
   2.141265590811848E-01   2.154275886924086E-01   2.167271945788894E-01
   2.180251402544637E-01   2.193211842014072E-01   2.206150798112977E-01
   2.219065753261069E-01   2.231954137795597E-01   2.244813329387998E-01
   2.257640652463985E-01   2.270433377627488E-01   2.283188721088864E-01
   2.295903844097797E-01   2.308575852381344E-01   2.321201795587571E-01
   2.333778666735258E-01   2.346303401670161E-01   2.358772878528312E-01
   2.371183917206892E-01   2.383533278843190E-01   2.395817665302195E-01
   2.408033718673372E-01   2.420178020777211E-01   2.432247092682111E-01
   2.444237394232228E-01   2.456145323586888E-01   2.467967216772207E-01
   2.479699347245569E-01   2.491337925473632E-01   2.502879098524534E-01
   2.514318949675017E-01   2.525653498033175E-01   2.536878698177558E-01
   2.547990439813398E-01   2.558984547446712E-01   2.569856780077067E-01
   2.580602830909826E-01   2.591218327088687E-01   2.601698829449346E-01
   2.612039832295157E-01   2.622236763195658E-01   2.632284982808847E-01
   2.642179784728138E-01   2.651916395354905E-01   2.661489973797581E-01
   2.670895611798265E-01   2.680128333687820E-01   2.689183096370482E-01
   2.698054789338969E-01   2.706738234721168E-01   2.715228187359408E-01
   2.723519334923447E-01   2.731606298058221E-01   2.739483630567489E-01
   2.747145819634488E-01   2.754587286080761E-01   2.761802384664297E-01
   2.768785404418180E-01   2.775530569030937E-01   2.782032037269797E-01
   2.788283903448084E-01   2.794280197938008E-01   2.800014887730085E-01
   2.805481877040490E-01   2.810675007967617E-01   2.815588061199150E-01
   2.820214756770968E-01   2.824548754879223E-01   2.828583656746917E-01
   2.832313005546354E-01   2.835730287378816E-01   2.838828932312864E-01
   2.841602315482633E-01   2.844043758247532E-01   2.846146529414756E-01
   2.847903846526017E-01   2.849308877209921E-01   2.850354740601428E-01
   2.851034508829811E-01   2.851341208576560E-01   2.851267822704682E-01
   2.850807291960815E-01   2.849952516751615E-01   2.848696358995862E-01
   2.847031644053704E-01   2.844951162734493E-01   2.842447673384642E-01
   2.839513904056926E-01   2.836142554762630E-01   2.832326299807983E-01
   2.828057790216243E-01   2.823329656236841E-01   2.818134509942926E-01
   2.812464947918695E-01   2.806313554037814E-01   2.799672902334260E-01
   2.792535559966861E-01   2.784894090278811E-01   2.776741055953389E-01
   2.768069022267096E-01   2.758870560441378E-01   2.749138251094088E-01
   2.738864687791784E-01   2.728042480703926E-01   2.716664260360006E-01
   2.704722681510577E-01   2.692210427093117E-01   2.679120212303606E-01
   2.665444788774643E-01   2.651176948860868E-01   2.636309530032402E-01
   2.620835419376952E-01   2.604747558211147E-01   2.588038946801644E-01
   2.570702649196404E-01   2.552731798166536E-01   2.534119600258960E-01
   2.514859340960113E-01   2.494944389970792E-01   2.474368206592162E-01
   2.453124345222870E-01   2.431206460967076E-01   2.408608315353146E-01
   2.385323782162641E-01   2.361346853369100E-01   2.336671645186050E-01
   2.311292404223523E-01   2.285203513752259E-01   2.258399500074659E-01
   2.230875039001399E-01   2.202624962432526E-01   2.173644265041696E-01
   2.143928111062087E-01   2.113471841172387E-01   2.082270979481114E-01
   2.050321240607367E-01   2.017618536855981E-01   1.984158985484884E-01
   1.949938916062322E-01   1.914954877911440E-01   1.879203647639556E-01
   1.842682236749306E-01   1.805387899328649E-01   1.767318139816573E-01
   1.728470720841157E-01   1.688843671126457E-01   1.648435293464514E-01
   1.607244172748594E-01   1.565269184063545E-01   1.522509500829023E-01
   1.478964602991054E-01   1.434634285257259E-01   1.389518665370807E-01
   1.343618192417950E-01   1.296933655163769E-01   1.249466190410503E-01
   1.201217291372578E-01   1.152188816062210E-01   1.102382995679158E-01
   1.051802442997919E-01   1.000450160745364E-01   9.483295499614866E-02
   8.954444183356064E-02   8.417989885100260E-02   7.873979063427725E-02
   7.322462491206809E-02   6.763495337136818E-02   6.197137246607529E-02
   5.623452421775794E-02   5.042509700755470E-02   4.454382635812672E-02
   3.859149570454147E-02   3.256893715292493E-02   2.647703222568079E-02
   2.031671259203941E-02   1.408896078266849E-02   7.794810887052897E-03
   1.435349232333943E-03  -4.988284957708378E-03  -1.147489892484110E-02
  -1.802324576102218E-02  -2.463202381675627E-02  -3.129987613435882E-02
  -3.802538990724624E-02  -4.480709596626649E-02  -5.164346829395665E-02
  -5.853292356745855E-02  -6.547382073064226E-02  -7.246446059578057E-02
  -7.950308547488841E-02  -8.658787884059331E-02  -9.371696501614411E-02
  -1.008884088939007E-01  -1.081002156813904E-01  -1.153503306737777E-01
  -1.226366390513827E-01  -1.299569657007253E-01  -1.373090750574640E-01
  -1.446906709695740E-01  -1.520993965791691E-01  -1.595328342215303E-01
  -1.669885053401729E-01  -1.744638704171642E-01  -1.819563289183981E-01
  -1.894632192541333E-01  -1.969818187558065E-01  -2.045093436709164E-01
  -2.120429491786279E-01  -2.195797294296443E-01  -2.271167176148046E-01
  -2.346508860677607E-01  -2.421791464079389E-01  -2.496983497307513E-01
  -2.572052868526671E-01  -2.646966886192282E-01  -2.721692262843800E-01
  -2.796195119695312E-01  -2.870440992105434E-01  -2.944394836003515E-01
  -3.018021035341329E-01  -3.091283410628746E-01  -3.164145228598762E-01
  -3.236569213032123E-01  -3.308517556755257E-01  -3.379951934808351E-01
  -3.450833518763797E-01  -3.521122992160136E-01  -3.590780567003666E-01
  -3.659766001279836E-01  -3.728038617409932E-01  -3.795557321585461E-01
  -3.862280623913015E-01  -3.928166659305935E-01  -3.993173209065136E-01
  -4.057257723099442E-01  -4.120377342744820E-01  -4.182488924151389E-01
  -4.243549062216239E-01  -4.303514115048488E-01  -4.362340228960125E-01
  -4.419983363981896E-01  -4.476399319907612E-01  -4.531543762872741E-01
  -4.585372252474342E-01  -4.637840269439077E-01  -4.688903243844839E-01
  -4.738516583899345E-01  -4.786635705276302E-01  -4.833216061006550E-01
  -4.878213171918206E-01  -4.921582657616351E-01  -4.963280267989408E-01
  -5.003261915226184E-01  -5.041483706324512E-01  -5.077901976069911E-01
  -5.112473320460212E-01  -5.145154630550310E-01  -5.175903126689458E-01
  -5.204676393122358E-01  -5.231432412924263E-01  -5.256129603239734E-01
  -5.278726850794203E-01  -5.299183547647346E-01  -5.317459627157287E-01
  -5.333515600124784E-01  -5.347312591086837E-01  -5.358812374729567E-01
  -5.367977412390645E-01  -5.374770888622069E-01  -5.379156747784637E-01
  -5.381099730646024E-01  -5.380565410954935E-01  -5.377520231964390E-01
  -5.371931542877736E-01  -5.363767635191531E-01  -5.352997778909975E-01
  -5.339592258606042E-01  -5.323522409304964E-01  -5.304760652166129E-01
  -5.283280529939921E-01  -5.259056742176351E-01  -5.232065180162759E-01
  -5.202282961568119E-01  -5.169688464771796E-01  -5.134261362854892E-01
  -5.095982657232440E-01  -5.054834710904970E-01  -5.010801281308025E-01
  -4.963867552738337E-01  -4.914020168335353E-01  -4.861247261596817E-01
  -4.805538487406992E-01  -4.746885052555990E-01  -4.685279745728463E-01
  -4.620716966939595E-01  -4.553192756396058E-01  -4.482704822759107E-01
  -4.409252570786529E-01  -4.332837128329602E-01  -4.253461372660539E-01
  -4.171129956105198E-01  -4.085849330955056E-01  -3.997627773631531E-01
  -3.906475408074851E-01  -3.812404228328646E-01  -3.715428120290385E-01
  -3.615562882596681E-01  -3.512826246611344E-01  -3.407237895482894E-01
  -3.298819482237050E-01  -3.187594646868555E-01  -3.073589032395500E-01
  -2.956830299838235E-01  -2.837348142083859E-01  -2.715174296596342E-01
  -2.590342556931463E-01  -2.462888783015076E-01  -2.332850910142673E-01
  -2.200268956657922E-01  -2.065185030267820E-01  -1.927643332952355E-01
  -1.787690164427125E-01  -1.645373924118391E-01  -1.500745111611350E-01
  -1.353856325534320E-01  -1.204762260843847E-01  -1.053519704478614E-01
  -9.001875293534799E-02  -7.448266866690134E-02  -5.875001965164781E-02
  -4.282731367634599E-02  -2.672126302111227E-02  -1.043878300204234E-02
   6.013009658854420E-03   2.262679863526640E-02   3.939506996783509E-02
   5.631011420237862E-02   7.336402869163279E-02   9.054872005629751E-02
   1.078559068004592E-01   1.252771220758093E-01   1.428037165885280E-01
   1.604268616422748E-01   1.781375523104719E-01   1.959266107310038E-01
   2.137846895166411E-01   2.317022752749518E-01   2.496696922322361E-01
   2.676771059571474E-01   2.857145271811686E-01   3.037718157150440E-01
   3.218386844626350E-01   3.399047035365119E-01   3.579593044829235E-01
   3.759917846276200E-01   3.939913115583616E-01   4.119469277648273E-01
   4.298475554620554E-01   4.476820016295055E-01   4.654389633043155E-01
   4.831070331743256E-01   5.006747055239074E-01   5.181303825934849E-01
   5.354623814217175E-01   5.526589412473820E-01   5.697082315556488E-01
   5.865983608600884E-01   6.033173863164801E-01   6.198533242660648E-01
   6.361941618025817E-01   6.523278694469630E-01   6.682424149930910E-01
   6.839257785540978E-01   6.993659687873715E-01   7.145510402036899E-01
   7.294691113679760E-01   7.441083836736202E-01   7.584571602190461E-01
   7.725038641381358E-01   7.862370555448810E-01   7.996454460642299E-01
   8.127179097611038E-01   8.254434891819898E-01   8.378113952286549E-01
   8.498109997330595E-01   8.614318199314660E-01   8.726634945617835E-01
   8.834957520203285E-01   8.939183718632349E-01   9.039211418330320E-01
   9.134938134064521E-01   9.226260594517942E-01   9.313074378197166E-01
   9.395273644791881E-01   9.472750991302227E-01   9.545397451424296E-01
   9.613102643293404E-01   9.675755056731168E-01   9.733242458748698E-01
   9.785452387007141E-01   9.832272696299919E-01   9.873592123084879E-01
   9.909300837019678E-01   9.939290955125711E-01   9.963457002182712E-01
   9.981696308897456E-01   9.993909346287984E-01   1.000000000000000E+00
   9.999875791750739E-01   9.993448056911783E-01   9.980632087712967E-01
   9.961347251056457E-01   9.935517088842175E-01   9.903069407330004E-01
   9.863936360622502E-01   9.818054531991678E-01   9.765365015577244E-01
   9.705813499985881E-01   9.639350354524833E-01   9.565930718193943E-01
   9.485514591113944E-01   9.398066927758989E-01   9.303557731162175E-01
   9.201962147150591E-01   9.093260557621571E-01   8.977438671876946E-01
   8.854487615073718E-01   8.724404012916150E-01   8.587190071796865E-01
   8.442853653685726E-01   8.291408345159651E-01   8.132873520059535E-01
   7.967274395348904E-01   7.794642079830784E-01   7.615013615452678E-01
   7.428432010994113E-01   7.234946267986163E-01   7.034611398758395E-01
   6.827488436545645E-01   6.613644437616051E-01   6.393152475403397E-01
   6.166091626642052E-01   5.932546949512609E-01   5.692609453811655E-01
   5.446376063160934E-01   5.193949569270387E-01   4.935438578266967E-01
   4.670957449097680E-01   4.400626224011763E-01   4.124570551123790E-01
   3.842921599057885E-01   3.555815963673292E-01   3.263395566874362E-01
   2.965807547513787E-01   2.663204144407403E-01   2.355742571492514E-01
   2.043584885179854E-01   1.726897843972511E-01   1.405852760453543E-01
   1.080625345778013E-01   7.513955468446271E-02   4.183473763673264E-02
   8.166873611760314E-03  -2.584487663361839E-02  -6.018100070063076E-02
  -9.482165405301815E-02  -1.297466800365790E-01  -1.649356303554256E-01
  -2.003677859397943E-01  -2.360221781336085E-01  -2.718776101237316E-01
  -3.079126785271348E-01  -3.441057950471411E-01  -3.804352081058444E-01
  -4.168790243568938E-01  -4.534152299812090E-01  -4.900217116680817E-01
  -5.266762771856425E-01  -5.633566754479273E-01  -6.000406159908492E-01
  -6.367057877762645E-01  -6.733298772520148E-01  -7.098905856062245E-01
  -7.463656451661281E-01  -7.827328349050952E-01  -8.189699950361142E-01
  -8.550550406854863E-01  -8.909659746566387E-01  -9.266808993104799E-01
  -9.621780276050966E-01  -9.974356933536623E-01  -1.032432360774897E+00
  -1.067146633424770E+00  -1.101557262611161E+00  -1.135643155404638E+00
  -1.169383382368059E+00  -1.202757185135148E+00  -1.235743983973369E+00
  -1.268323385469140E+00  -1.300475190473658E+00  -1.332179402445193E+00
  -1.363416236318720E+00  -1.394166128026207E+00  -1.424409744780790E+00
  -1.454127996225633E+00  -1.483302046533623E+00  -1.511913327527361E+00
  -1.539943552870529E+00  -1.567374733361786E+00  -1.594189193341324E+00
  -1.620369588198405E+00  -1.645898922945950E+00  -1.670760571806075E+00
  -1.694938298728679E+00  -1.718416278744316E+00  -1.741179120033078E+00
  -1.763211886573385E+00  -1.784500121219089E+00  -1.805029869040306E+00
  -1.824787700753450E+00  -1.843760736059294E+00  -1.861936666704817E+00
  -1.879303779085373E+00  -1.895850976208408E+00  -1.911567798848716E+00
  -1.926444445737955E+00  -1.940471792647825E+00  -1.953641410246673E+00
  -1.965945580633010E+00  -1.977377312476173E+00  -1.987930354723443E+00
  -1.997599208863776E+00  -2.006379139769974E+00  -2.014266185172710E+00
  -2.021257163850091E+00  -2.027349682644075E+00  -2.032542142438547E+00
  -2.036833743251601E+00  -2.040224488604664E+00  -2.042715189331989E+00
  -2.044307466983770E+00  -2.045003756953423E+00  -2.044807311423270E+00
  -2.043722202172595E+00  -2.041753323228318E+00  -2.038906393263074E+00
  -2.035187957561267E+00  -2.030605389285371E+00  -2.025166889688387E+00
  -2.018881486841297E+00  -2.011759032384911E+00  -2.003810195782083E+00
  -1.995046455546674E+00  -1.985480086965970E+00  -1.975124145916828E+00
  -1.963992448502337E+00  -1.952099546400536E+00  -1.939460698010735E+00
  -1.926091835693025E+00  -1.912009529606345E+00  -1.897230948842169E+00
  -1.881773820706776E+00  -1.865656389109758E+00  -1.848897373058590E+00
  -1.831515926232893E+00  -1.813531598517559E+00  -1.794964300218847E+00
  -1.775834269484204E+00  -1.756162043211516E+00  -1.735968431487105E+00
  -1.715274495353963E+00  -1.694101527500637E+00  -1.672471035292381E+00
  -1.650404725449905E+00  -1.627924489622480E+00  -1.605052390101018E+00
  -1.581810644967808E+00  -1.558221612073940E+00  -1.534307771361423E+00
  -1.510091705191912E+00  -1.485596076495238E+00  -1.460843604697245E+00
  -1.435857039518601E+00  -1.410659132847589E+00  -1.385272608976397E+00
  -1.359720133550593E+00  -1.334024281616032E+00  -1.308207505158597E+00
  -1.282292100523486E+00  -1.256300176076220E+00  -1.230253620431310E+00
  -1.204174071530781E+00  -1.178082886807686E+00  -1.152001114621005E+00
  -1.125949467099085E+00  -1.099948294486887E+00  -1.074017561054386E+00
  -1.048176822585991E+00  -1.022445205442587E+00  -9.968413871649239E-01
  -9.713835785675055E-01  -9.460895072582854E-01  -9.209764025094325E-01
  -8.960609813980666E-01  -8.713594361326328E-01  -8.468874224799884E-01
  -8.226600492099185E-01  -7.986918684772560E-01  -7.749968670667819E-01
  -7.515884584322886E-01  -7.284794754684077E-01  -7.056821639617966E-01
  -6.832081766768719E-01  -6.610685680403143E-01  -6.392737893978656E-01
  -6.178336848263755E-01  -5.967574874934419E-01  -5.760538165662037E-01
  -5.557306746797013E-01  -5.357954459835839E-01  -5.162548947936397E-01
  -4.971151648815095E-01  -4.783817794418788E-01  -4.600596417812914E-01
  -4.421530367763803E-01  -4.246656331516903E-01  -4.076004866282973E-01
  -3.909600439940908E-01  -3.747461481448676E-01  -3.589600441423262E-01
  -3.436023863306963E-01  -3.286732465481876E-01  -3.141721234628054E-01
  -3.000979530544844E-01  -2.864491202570979E-01  -2.732234717648724E-01
  -2.604183299982400E-01  -2.480305082143873E-01  -2.360563267378702E-01
   0.000000000000000E+00   0.000000000000000E+00   0.000000000000000E+00
   0.000000000000000E+00   0.000000000000000E+00   0.000000000000000E+00
   0.000000000000000E+00   0.000000000000000E+00   0.000000000000000E+00
   0.000000000000000E+00   0.000000000000000E+00   0.000000000000000E+00
   0.000000000000000E+00   0.000000000000000E+00   0.000000000000000E+00
   0.000000000000000E+00   0.000000000000000E+00   0.000000000000000E+00
   0.000000000000000E+00   0.000000000000000E+00   0.000000000000000E+00
   0.000000000000000E+00   0.000000000000000E+00   0.000000000000000E+00
   0.000000000000000E+00   0.000000000000000E+00   0.000000000000000E+00
   0.000000000000000E+00   0.000000000000000E+00   0.000000000000000E+00
   0.000000000000000E+00   0.000000000000000E+00   0.000000000000000E+00
   0.000000000000000E+00   0.000000000000000E+00   0.000000000000000E+00
   0.000000000000000E+00   0.000000000000000E+00   0.000000000000000E+00
   0.000000000000000E+00   0.000000000000000E+00   0.000000000000000E+00
   0.000000000000000E+00   0.000000000000000E+00   0.000000000000000E+00
   0.000000000000000E+00   0.000000000000000E+00   0.000000000000000E+00
   0.000000000000000E+00   0.000000000000000E+00   0.000000000000000E+00
   0.000000000000000E+00   0.000000000000000E+00   0.000000000000000E+00
   0.000000000000000E+00   0.000000000000000E+00   0.000000000000000E+00
   0.000000000000000E+00   0.000000000000000E+00   0.000000000000000E+00
   0.000000000000000E+00   0.000000000000000E+00   0.000000000000000E+00
   0.000000000000000E+00   0.000000000000000E+00   0.000000000000000E+00
   0.000000000000000E+00   0.000000000000000E+00   0.000000000000000E+00
   0.000000000000000E+00   0.000000000000000E+00   0.000000000000000E+00
   0.000000000000000E+00   0.000000000000000E+00   0.000000000000000E+00
   0.000000000000000E+00   0.000000000000000E+00   0.000000000000000E+00
   0.000000000000000E+00   0.000000000000000E+00   0.000000000000000E+00
   0.000000000000000E+00   0.000000000000000E+00   0.000000000000000E+00
   0.000000000000000E+00   0.000000000000000E+00   0.000000000000000E+00
   0.000000000000000E+00   0.000000000000000E+00   0.000000000000000E+00
   0.000000000000000E+00   0.000000000000000E+00   0.000000000000000E+00
   0.000000000000000E+00   0.000000000000000E+00   0.000000000000000E+00
   0.000000000000000E+00   0.000000000000000E+00   0.000000000000000E+00
   0.000000000000000E+00   0.000000000000000E+00   0.000000000000000E+00
   0.000000000000000E+00   0.000000000000000E+00   0.000000000000000E+00
   0.000000000000000E+00   0.000000000000000E+00   0.000000000000000E+00
   0.000000000000000E+00   0.000000000000000E+00   0.000000000000000E+00
   0.000000000000000E+00   0.000000000000000E+00   0.000000000000000E+00
   0.000000000000000E+00   0.000000000000000E+00   0.000000000000000E+00
   0.000000000000000E+00   0.000000000000000E+00   0.000000000000000E+00
   0.000000000000000E+00   0.000000000000000E+00   0.000000000000000E+00
   0.000000000000000E+00   0.000000000000000E+00   0.000000000000000E+00
   0.000000000000000E+00   0.000000000000000E+00   0.000000000000000E+00
   0.000000000000000E+00   0.000000000000000E+00   0.000000000000000E+00
   0.000000000000000E+00   0.000000000000000E+00   0.000000000000000E+00
   0.000000000000000E+00   0.000000000000000E+00   0.000000000000000E+00
   0.000000000000000E+00   0.000000000000000E+00   0.000000000000000E+00
   0.000000000000000E+00   0.000000000000000E+00   0.000000000000000E+00
   0.000000000000000E+00   0.000000000000000E+00   0.000000000000000E+00
   0.000000000000000E+00   0.000000000000000E+00   0.000000000000000E+00
   0.000000000000000E+00   0.000000000000000E+00   0.000000000000000E+00
   0.000000000000000E+00   0.000000000000000E+00   0.000000000000000E+00
   0.000000000000000E+00   0.000000000000000E+00   0.000000000000000E+00
   0.000000000000000E+00   0.000000000000000E+00   0.000000000000000E+00
   0.000000000000000E+00   0.000000000000000E+00   0.000000000000000E+00
   0.000000000000000E+00   0.000000000000000E+00   0.000000000000000E+00
   0.000000000000000E+00   0.000000000000000E+00   0.000000000000000E+00
   0.000000000000000E+00   0.000000000000000E+00   0.000000000000000E+00
   0.000000000000000E+00   0.000000000000000E+00   0.000000000000000E+00
   0.000000000000000E+00   0.000000000000000E+00   0.000000000000000E+00
   0.000000000000000E+00   0.000000000000000E+00   0.000000000000000E+00
   0.000000000000000E+00   0.000000000000000E+00   0.000000000000000E+00
   0.000000000000000E+00   0.000000000000000E+00   0.000000000000000E+00
   0.000000000000000E+00
        </PP_GIPAW_WFS_AE>
        <PP_GIPAW_WFS_PS size="1525">
   1.403532201833623E-05   1.417639145562509E-05   1.431887866433070E-05
   1.446279789329275E-05   1.460816353455411E-05   1.475499012480011E-05
   1.490329234681221E-05   1.505308503093628E-05   1.520438315656560E-05
   1.535720185363892E-05   1.551155640415335E-05   1.566746224369267E-05
   1.582493496297083E-05   1.598399030939104E-05   1.614464418862060E-05
   1.630691266618142E-05   1.647081196905653E-05   1.663635848731293E-05
   1.680356877574048E-05   1.697245955550750E-05   1.714304771583277E-05
   1.731535031567460E-05   1.748938458543667E-05   1.766516792869109E-05
   1.784271792391879E-05   1.802205232626736E-05   1.820318906932662E-05
   1.838614626692192E-05   1.857094221492565E-05   1.875759539308672E-05
   1.894612446687865E-05   1.913654828936605E-05   1.932888590309001E-05
   1.952315654197234E-05   1.971937963323897E-05   1.991757479936272E-05
   2.011776186002554E-05   2.031996083410047E-05   2.052419194165361E-05
   2.073047560596608E-05   2.093883245557643E-05   2.114928332634341E-05
   2.136184926352969E-05   2.157655152390634E-05   2.179341157787852E-05
   2.201245111163257E-05   2.223369202930461E-05   2.245715645517104E-05
   2.268286673586088E-05   2.291084544259055E-05   2.314111537342093E-05
   2.337369955553729E-05   2.360862124755192E-05   2.384590394183006E-05
   2.408557136683916E-05   2.432764748952173E-05   2.457215651769209E-05
   2.481912290245712E-05   2.506857134066142E-05   2.532052677735706E-05
   2.557501440829802E-05   2.583205968245980E-05   2.609168830458436E-05
   2.635392623775069E-05   2.661879970597099E-05   2.688633519681324E-05
   2.715655946404985E-05   2.742949953033312E-05   2.770518268989757E-05
   2.798363651128936E-05   2.826488884012314E-05   2.854896780186664E-05
   2.883590180465327E-05   2.912571954212292E-05   2.941844999629134E-05
   2.971412244044848E-05   3.001276644208569E-05   3.031441186585259E-05
   3.061908887654350E-05   3.092682794211399E-05   3.123765983672764E-05
   3.155161564383363E-05   3.186872675927493E-05   3.218902489442803E-05
   3.251254207937406E-05   3.283931066610188E-05   3.316936333174321E-05
   3.350273308184044E-05   3.383945325364715E-05   3.417955751946197E-05
   3.452307988999570E-05   3.487005471777255E-05   3.522051670056533E-05
   3.557450088486530E-05   3.593204266938685E-05   3.629317780860738E-05
   3.665794241634273E-05   3.702637296935872E-05   3.739850631101877E-05
   3.777437965496822E-05   3.815403058885586E-05   3.853749707809257E-05
   3.892481746964806E-05   3.931603049588554E-05   3.971117527843490E-05
   4.011029133210496E-05   4.051341856883506E-05   4.092059730168618E-05
   4.133186824887245E-05   4.174727253783273E-05   4.216685170934369E-05
   4.259064772167368E-05   4.301870295477867E-05   4.345106021454041E-05
   4.388776273704690E-05   4.432885419291609E-05   4.477437869166292E-05
   4.522438078611045E-05   4.567890547684507E-05   4.613799821671669E-05
   4.660170491538398E-05   4.707007194390527E-05   4.754314613937603E-05
   4.802097480961227E-05   4.850360573788149E-05   4.899108718768117E-05
   4.948346790756498E-05   4.998079713601780E-05   5.048312460637951E-05
   5.099050055181846E-05   5.150297571035482E-05   5.202060132993440E-05
   5.254342917355350E-05   5.307151152443516E-05   5.360490119125773E-05
   5.414365151343567E-05   5.468781636645346E-05   5.523745016725331E-05
   5.579260787967689E-05   5.635334501996179E-05   5.691971766229300E-05
   5.749178244441064E-05   5.806959657327368E-05   5.865321783078065E-05
   5.924270457954785E-05   5.983811576874584E-05   6.043951093999421E-05
   6.104695023331590E-05   6.166049439315122E-05   6.228020477443232E-05
   6.290614334871884E-05   6.353837271039513E-05   6.417695608292959E-05
   6.482195732519731E-05   6.547344093786572E-05   6.613147206984491E-05
   6.679611652480256E-05   6.746744076774425E-05   6.814551193166017E-05
   6.883039782423840E-05   6.952216693464586E-05   7.022088844037723E-05
   7.092663221417262E-05   7.163946883100507E-05   7.235946957513805E-05
   7.308670644725388E-05   7.382125217165397E-05   7.456318020353152E-05
   7.531256473631664E-05   7.606948070909606E-05   7.683400381410717E-05
   7.760621050430717E-05   7.838617800101847E-05   7.917398430165084E-05
   7.996970818750122E-05   8.077342923163212E-05   8.158522780682881E-05
   8.240518509363670E-05   8.323338308847966E-05   8.406990461185953E-05
   8.491483331663810E-05   8.576825369640313E-05   8.663025109391685E-05
   8.750091170965109E-05   8.838032261040724E-05   8.926857173802268E-05
   9.016574791816538E-05   9.107194086921641E-05   9.198724121124194E-05
   9.291174047505533E-05   9.384553111137025E-05   9.478870650004599E-05
   9.574136095942544E-05   9.670358975576679E-05   9.767548911277070E-05
   9.865715622120240E-05   9.964868924861085E-05   1.006501873491461E-04
   1.016617506734743E-04   1.026834803787928E-04   1.037154786389463E-04
   1.047578486546446E-04   1.058106946637819E-04   1.068741219518617E-04
   1.079482368625246E-04   1.090331468081833E-04   1.101289602807639E-04
   1.112357868625548E-04   1.123537372371657E-04   1.134829232005955E-04
   1.146234576724122E-04   1.157754547070455E-04   1.169390295051914E-04
   1.181142984253329E-04   1.193013789953763E-04   1.205003899244036E-04
   1.217114511145437E-04   1.229346836729629E-04   1.241702099239755E-04
   1.254181534212767E-04   1.266786389602979E-04   1.279517925906859E-04
   1.292377416289090E-04   1.305366146709880E-04   1.318485416053564E-04
   1.331736536258494E-04   1.345120832448231E-04   1.358639643064059E-04
   1.372294319998836E-04   1.386086228732176E-04   1.400016748467008E-04
   1.414087272267494E-04   1.428299207198334E-04   1.442653974465479E-04
   1.457153009558252E-04   1.471797762392895E-04   1.486589697457568E-04
   1.501530293958798E-04   1.516621045969399E-04   1.531863462577881E-04
   1.547259068039364E-04   1.562809401928004E-04   1.578516019290951E-04
   1.594380490803866E-04   1.610404402927970E-04   1.626589358068714E-04
   1.642936974736001E-04   1.659448887706057E-04   1.676126748184902E-04
   1.692972223973477E-04   1.709986999634415E-04   1.727172776660519E-04
   1.744531273644898E-04   1.762064226452834E-04   1.779773388395374E-04
   1.797660530404658E-04   1.815727441211013E-04   1.833975927521839E-04
   1.852407814202278E-04   1.871024944457695E-04   1.889829180018008E-04
   1.908822401323867E-04   1.928006507714696E-04   1.947383417618630E-04
   1.966955068744365E-04   1.986723418274926E-04   2.006690443063390E-04
   2.026858139830581E-04   2.047228525364734E-04   2.067803636723191E-04
   2.088585531436097E-04   2.109576287712156E-04   2.130778004646472E-04
   2.152192802430441E-04   2.173822822563790E-04   2.195670228068721E-04
   2.217737203706225E-04   2.240025956194551E-04   2.262538714429892E-04
   2.285277729709269E-04   2.308245275955680E-04   2.331443649945478E-04
   2.354875171538069E-04   2.378542183907886E-04   2.402447053778726E-04
   2.426592171660418E-04   2.450979952087882E-04   2.475612833862586E-04
   2.500493280296431E-04   2.525623779458091E-04   2.551006844421817E-04
   2.576645013518754E-04   2.602540850590786E-04   2.628696945246917E-04
   2.655115913122233E-04   2.681800396139486E-04   2.708753062773275E-04
   2.735976608316915E-04   2.763473755151964E-04   2.791247253020466E-04
   2.819299879299933E-04   2.847634439281097E-04   2.876253766448433E-04
   2.905160722763519E-04   2.934358198951243E-04   2.963849114788881E-04
   2.993636419398079E-04   3.023723091539774E-04   3.054112139912083E-04
   3.084806603451172E-04   3.115809551635152E-04   3.147124084791058E-04
   3.178753334404872E-04   3.210700463434681E-04   3.242968666626978E-04
   3.275561170836164E-04   3.308481235347228E-04   3.341732152201686E-04
   3.375317246526795E-04   3.409239876868077E-04   3.443503435525193E-04
   3.478111348891162E-04   3.513067077795026E-04   3.548374117847938E-04
   3.584035999792746E-04   3.620056289857063E-04   3.656438590109913E-04
   3.693186538821937E-04   3.730303810829253E-04   3.767794117900927E-04
   3.805661209110182E-04   3.843908871209302E-04   3.882540929008350E-04
   3.921561245757627E-04   3.960973723534035E-04   4.000782303631296E-04
   4.040990966954081E-04   4.081603734416144E-04   4.122624667342396E-04
   4.164057867875090E-04   4.205907479384017E-04   4.248177686880883E-04
   4.290872717437820E-04   4.333996840610104E-04   4.377554368863145E-04
   4.421549658003748E-04   4.465987107615701E-04   4.510871161499773E-04
   4.556206308118097E-04   4.601997081043047E-04   4.648248059410615E-04
   4.694963868378348E-04   4.742149179587883E-04   4.789808711632130E-04
   4.837947230527165E-04   4.886569550188854E-04   4.935680532914278E-04
   4.985285089867972E-04   5.035388181573083E-04   5.085994818407436E-04
   5.137110061104614E-04   5.188739021260053E-04   5.240886861842229E-04
   5.293558797708985E-04   5.346760096129066E-04   5.400496077308855E-04
   5.454772114924448E-04   5.509593636659038E-04   5.564966124745731E-04
   5.620895116515804E-04   5.677386204952464E-04   5.734445039250190E-04
   5.792077325379699E-04   5.850288826658582E-04   5.909085364327670E-04
   5.968472818133209E-04   6.028457126914872E-04   6.089044289199698E-04
   6.150240363801982E-04   6.212051470429204E-04   6.274483790294046E-04
   6.337543566732579E-04   6.401237105828642E-04   6.465570777044504E-04
   6.530551013857848E-04   6.596184314405204E-04   6.662477242131801E-04
   6.729436426447973E-04   6.797068563392167E-04   6.865380416300627E-04
   6.934378816483745E-04   7.004070663909317E-04   7.074462927892564E-04
   7.145562647793167E-04   7.217376933719252E-04   7.289912967238477E-04
   7.363178002096278E-04   7.437179364941330E-04   7.511924456058258E-04
   7.587420750107806E-04   7.663675796874336E-04   7.740697222020916E-04
   7.818492727852001E-04   7.897070094083718E-04   7.976437178621953E-04
   8.056601918348252E-04   8.137572329913596E-04   8.219356510540160E-04
   8.301962638831183E-04   8.385398975588911E-04   8.469673864640798E-04
   8.554795733674023E-04   8.640773095078358E-04   8.727614546797558E-04
   8.815328773189244E-04   8.903924545893536E-04   8.993410724710269E-04
   9.083796258485188E-04   9.175090186004957E-04   9.267301636901168E-04
   9.360439832563467E-04   9.454514087061867E-04   9.549533808078322E-04
   9.645508497847631E-04   9.742447754107851E-04   9.840361271060271E-04
   9.939258840338989E-04   1.003915035199026E-03   1.014004579546171E-03
   1.024195526060146E-03   1.034488893866738E-03   1.044885712334634E-03
   1.055387021178386E-03   1.065993870562401E-03   1.076707321205985E-03
   1.087528444489435E-03   1.098458322561200E-03   1.109498048446129E-03
   1.120648726154790E-03   1.131911470793904E-03   1.143287408677882E-03
   1.154777677441486E-03   1.166383426153616E-03   1.178105815432257E-03
   1.189946017560562E-03   1.201905216604118E-03   1.213984608529385E-03
   1.226185401323324E-03   1.238508815114232E-03   1.250956082293793E-03
   1.263528447640349E-03   1.276227168443424E-03   1.289053514629484E-03
   1.302008768888975E-03   1.315094226804634E-03   1.328311196981084E-03
   1.341661001175746E-03   1.355144974431060E-03   1.368764465208030E-03
   1.382520835521124E-03   1.396415461074524E-03   1.410449731399744E-03
   1.424625049994644E-03   1.438942834463828E-03   1.453404516660461E-03
   1.468011542829514E-03   1.482765373752441E-03   1.497667484893330E-03
   1.512719366546505E-03   1.527922523985624E-03   1.543278477614266E-03
   1.558788763118048E-03   1.574454931618265E-03   1.590278549827070E-03
   1.606261200204224E-03   1.622404481115416E-03   1.638710006992184E-03
   1.655179408493438E-03   1.671814332668608E-03   1.688616443122445E-03
   1.705587420181463E-03   1.722728961062070E-03   1.740042780040378E-03
   1.757530608623736E-03   1.775194195723981E-03   1.793035307832431E-03
   1.811055729196643E-03   1.829257261998947E-03   1.847641726536782E-03
   1.866210961404843E-03   1.884966823679057E-03   1.903911189102417E-03
   1.923045952272691E-03   1.942373026832009E-03   1.961894345658360E-03
   1.981611861059030E-03   2.001527544965966E-03   2.021643389133130E-03
   2.041961405335824E-03   2.062483625572017E-03   2.083212102265724E-03
   2.104148908472406E-03   2.125296138086447E-03   2.146655906050732E-03
   2.168230348568312E-03   2.190021623316224E-03   2.212031909661453E-03
   2.234263408879063E-03   2.256718344372543E-03   2.279398961896343E-03
   2.302307529780689E-03   2.325446339158630E-03   2.348817704195393E-03
   2.372423962320031E-03   2.396267474459416E-03   2.420350625274596E-03
   2.444675823399507E-03   2.469245501682120E-03   2.494062117428010E-03
   2.519128152646362E-03   2.544446114298469E-03   2.570018534548742E-03
   2.595847971018227E-03   2.621937007040717E-03   2.648288251921385E-03
   2.674904341198082E-03   2.701787936905248E-03   2.728941727840460E-03
   2.756368429833706E-03   2.784070786019351E-03   2.812051567110847E-03
   2.840313571678220E-03   2.868859626428347E-03   2.897692586488066E-03
   2.926815335690136E-03   2.956230786862092E-03   2.985941882117996E-03
   3.015951593153143E-03   3.046262921541748E-03   3.076878899037617E-03
   3.107802587877859E-03   3.139037081089667E-03   3.170585502800200E-03
   3.202451008549579E-03   3.234636785607042E-03   3.267146053290307E-03
   3.299982063288147E-03   3.333148099986213E-03   3.366647480796173E-03
   3.400483556488134E-03   3.434659711526482E-03   3.469179364409037E-03
   3.504045968009710E-03   3.539263009924551E-03   3.574834012821361E-03
   3.610762534792784E-03   3.647052169712984E-03   3.683706547597931E-03
   3.720729334969331E-03   3.758124235222231E-03   3.795894988996332E-03
   3.834045374551057E-03   3.872579208144436E-03   3.911500344415784E-03
   3.950812676772279E-03   3.990520137779447E-03   4.030626699555572E-03
   4.071136374170144E-03   4.112053214046290E-03   4.153381312367318E-03
   4.195124803487324E-03   4.237287863346029E-03   4.279874709887756E-03
   4.322889603484682E-03   4.366336847364344E-03   4.410220788041526E-03
   4.454545815754469E-03   4.499316364905548E-03   4.544536914506375E-03
   4.590211988627433E-03   4.636346156852280E-03   4.682944034736331E-03
   4.730010284270306E-03   4.777549614348403E-03   4.825566781241169E-03
   4.874066589073224E-03   4.923053890305798E-03   4.972533586224179E-03
   5.022510627430107E-03   5.072990014339178E-03   5.123976797683282E-03
   5.175476079018160E-03   5.227493011236121E-03   5.280032799083957E-03
   5.333100699686147E-03   5.386702023073335E-03   5.440842132716251E-03
   5.495526446065008E-03   5.550760435093907E-03   5.606549626851795E-03
   5.662899604018010E-03   5.719816005463996E-03   5.777304526820638E-03
   5.835370921051393E-03   5.894020999031243E-03   5.953260630131548E-03
   6.013095742810886E-03   6.073532325211872E-03   6.134576425764153E-03
   6.196234153793466E-03   6.258511680136974E-03   6.321415237764856E-03
   6.384951122408267E-03   6.449125693193707E-03   6.513945373283874E-03
   6.579416650525058E-03   6.645546078101219E-03   6.712340275194662E-03
   6.779805927653559E-03   6.847949788666270E-03   6.916778679442559E-03
   6.986299489901839E-03   7.056519179368436E-03   7.127444777273999E-03
   7.199083383867091E-03   7.271442170930127E-03   7.344528382503610E-03
   7.418349335617838E-03   7.492912421032131E-03   7.568225103981656E-03
   7.644294924931939E-03   7.721129500341133E-03   7.798736523430132E-03
   7.877123764960676E-03   7.956299074021381E-03   8.036270378821963E-03
   8.117045687495579E-03   8.198633088909536E-03   8.281040753484301E-03
   8.364276934021005E-03   8.448349966537512E-03   8.533268271113122E-03
   8.619040352742018E-03   8.705674802195570E-03   8.793180296893570E-03
   8.881565601784479E-03   8.970839570234848E-03   9.061011144927918E-03
   9.152089358771617E-03   9.244083335815971E-03   9.337002292180043E-03
   9.430855536988554E-03   9.525652473318236E-03   9.621402599154024E-03
   9.718115508355347E-03   9.815800891632318E-03   9.914468537532284E-03
   1.001412833343660E-02   1.011479026656789E-02   1.021646442500780E-02
   1.031916099872544E-02   1.042289028061666E-02   1.052766266755416E-02
   1.063348866144866E-02   1.074037887032127E-02   1.084834400938705E-02
   1.095739490215011E-02   1.106754248151014E-02   1.117879779088066E-02
   1.129117198531913E-02   1.140467633266894E-02   1.151932221471351E-02
   1.163512112834262E-02   1.175208468673114E-02   1.187022462053016E-02
   1.198955277907091E-02   1.211008113158141E-02   1.223182176841615E-02
   1.235478690229872E-02   1.247898886957791E-02   1.260444013149711E-02
   1.273115327547726E-02   1.285914101641363E-02   1.298841619798648E-02
   1.311899179398575E-02   1.325088090965000E-02   1.338409678301983E-02
   1.351865278630579E-02   1.365456242727111E-02   1.379183935062938E-02
   1.393049733945727E-02   1.407055031662269E-02   1.421201234622830E-02
   1.435489763507090E-02   1.449922053411640E-02   1.464499553999120E-02
   1.479223729648960E-02   1.494096059609785E-02   1.509118038153479E-02
   1.524291174730935E-02   1.539616994129531E-02   1.555097036632325E-02
   1.570732858179007E-02   1.586526030528630E-02   1.602478141424143E-02
   1.618590794758738E-02   1.634865610744049E-02   1.651304226080223E-02
   1.667908294127877E-02   1.684679485081982E-02   1.701619486147681E-02
   1.718730001718091E-02   1.736012753554083E-02   1.753469480966103E-02
   1.771101940998019E-02   1.788911908613063E-02   1.806901176881870E-02
   1.825071557172644E-02   1.843424879343494E-02   1.861962991936951E-02
   1.880687762376711E-02   1.899601077166631E-02   1.918704842091995E-02
   1.938000982423107E-02   1.957491443121214E-02   1.977178189046828E-02
   1.997063205170430E-02   2.017148496785647E-02   2.037436089724888E-02
   2.057928030577505E-02   2.078626386910502E-02   2.099533247491830E-02
   2.120650722516307E-02   2.141980943834207E-02   2.163526065182531E-02
   2.185288262419046E-02   2.207269733759075E-02   2.229472700015130E-02
   2.251899404839403E-02   2.274552114969159E-02   2.297433120475081E-02
   2.320544735012607E-02   2.343889296076319E-02   2.367469165257395E-02
   2.391286728504218E-02   2.415344396386145E-02   2.439644604360522E-02
   2.464189813042969E-02   2.488982508480999E-02   2.514025202431018E-02
   2.539320432638778E-02   2.564870763123295E-02   2.590678784464337E-02
   2.616747114093503E-02   2.643078396588971E-02   2.669675303973955E-02
   2.696540536018963E-02   2.723676820547882E-02   2.751086913747979E-02
   2.778773600483870E-02   2.806739694615533E-02   2.834988039320409E-02
   2.863521507419698E-02   2.892343001708892E-02   2.921455455292620E-02
   2.950861831923885E-02   2.980565126347775E-02   3.010568364649716E-02
   3.040874604608330E-02   3.071486936053022E-02   3.102408481226330E-02
   3.133642395151164E-02   3.165191866002993E-02   3.197060115487082E-02
   3.229250399220841E-02   3.261766007121442E-02   3.294610263798735E-02
   3.327786528953583E-02   3.361298197781723E-02   3.395148701383262E-02
   3.429341507177876E-02   3.463880119325859E-02   3.498768079155097E-02
   3.534008965594120E-02   3.569606395611313E-02   3.605564024660400E-02
   3.641885547132353E-02   3.678574696813836E-02   3.715635247352284E-02
   3.753071012727795E-02   3.790885847731918E-02   3.829083648453520E-02
   3.867668352771825E-02   3.906643940856822E-02   3.946014435677112E-02
   3.985783903515452E-02   4.025956454492044E-02   4.066536243095783E-02
   4.107527468723616E-02   4.148934376228196E-02   4.190761256473952E-02
   4.233012446901806E-02   4.275692332102692E-02   4.318805344400035E-02
   4.362355964441458E-02   4.406348721799793E-02   4.450788195583715E-02
   4.495679015058123E-02   4.541025860274509E-02   4.586833462711530E-02
   4.633106605925994E-02   4.679850126214485E-02   4.727068913285881E-02
   4.774767910944974E-02   4.822952117787477E-02   4.871626587906602E-02
   4.920796431611583E-02   4.970466816158253E-02   5.020642966492087E-02
   5.071330166003934E-02   5.122533757298711E-02   5.174259142977387E-02
   5.226511786432519E-02   5.279297212657731E-02   5.332621009071346E-02
   5.386488826354607E-02   5.440906379304745E-02   5.495879447703286E-02
   5.551413877199952E-02   5.607515580212485E-02   5.664190536842818E-02
   5.721444795809984E-02   5.779284475400082E-02   5.837715764433821E-02
   5.896744923251984E-02   5.956378284719261E-02   6.016622255246918E-02
   6.077483315834740E-02   6.138968023132733E-02   6.201083010523042E-02
   6.263834989222618E-02   6.327230749407091E-02   6.391277161356441E-02
   6.455981176622946E-02   6.521349829222013E-02   6.587390236846422E-02
   6.654109602104613E-02   6.721515213783542E-02   6.789614448136864E-02
   6.858414770198909E-02   6.927923735125237E-02   6.998148989560424E-02
   7.069098273033692E-02   7.140779419383232E-02   7.213200358209867E-02
   7.286369116360769E-02   7.360293819444147E-02   7.434982693375577E-02
   7.510444065956857E-02   7.586686368488217E-02   7.663718137414761E-02
   7.741548016008033E-02   7.820184756083613E-02   7.899637219755719E-02
   7.979914381229809E-02   8.061025328634089E-02   8.142979265891055E-02
   8.225785514630099E-02   8.309453516142257E-02   8.393992833378217E-02
   8.479413152990825E-02   8.565724287423103E-02   8.652936177043205E-02
   8.741058892327414E-02   8.830102636092524E-02   8.920077745778993E-02
   9.010994695786109E-02   9.102864099860700E-02   9.195696713540749E-02
   9.289503436655470E-02   9.384295315883304E-02   9.480083547369496E-02
   9.576879479404742E-02   9.674694615166726E-02   9.773540615526123E-02
   9.873429301918915E-02   9.974372659286780E-02   1.007638283908742E-01
   1.017947216237674E-01   1.028365312296491E-01   1.038893839064817E-01
   1.049534081451864E-01   1.060287342635406E-01   1.071154944408992E-01
   1.082138227537596E-01   1.093238552121946E-01   1.104457297971776E-01
   1.115795864988238E-01   1.127255673555718E-01   1.138838164943329E-01
   1.150544801716326E-01   1.162377068157737E-01   1.174336470700459E-01
   1.186424538370127E-01   1.198642823239047E-01   1.210992900891470E-01
   1.223476370900548E-01   1.236094857317260E-01   1.248850009171648E-01
   1.261743500986674E-01   1.274777033305072E-01   1.287952333229505E-01
   1.301271154976393E-01   1.314735280443793E-01   1.328346519793691E-01
   1.342106712049069E-01   1.356017725706168E-01   1.370081459362321E-01
   1.384299842359774E-01   1.398674835445892E-01   1.413208431450207E-01
   1.427902655978684E-01   1.442759568125710E-01   1.457781261204197E-01
   1.472969863494275E-01   1.488327539011052E-01   1.503856488291889E-01
   1.519558949203673E-01   1.535437197770589E-01   1.551493549022850E-01
   1.567730357866909E-01   1.584150019977651E-01   1.600754972713062E-01
   1.617547696051893E-01   1.634530713554844E-01   1.651706593349763E-01
   1.669077949141407E-01   1.686647441246276E-01   1.704417777653042E-01
   1.722391715109093E-01   1.740572060233701E-01   1.758961670658364E-01
   1.777563456194785E-01   1.796380380031017E-01   1.815415459956266E-01
   1.834671769614819E-01   1.854152439789581E-01   1.873860659715662E-01
   1.893799678424440E-01   1.913972806118529E-01   1.934383415578026E-01
   1.955034943598380E-01   1.975930892460234E-01   1.997074831431503E-01
   2.018470398301944E-01   2.040121300950400E-01   2.062031318944899E-01
   2.084204305175647E-01   2.106644187520982E-01   2.129354970546201E-01
   2.152340737235179E-01   2.175605650754528E-01   2.199153956250000E-01
   2.222989982674722E-01   2.247118144648754E-01   2.271542944349271E-01
   2.296268973430616E-01   2.321300914973272E-01   2.346643545460638E-01
   2.372301736782336E-01   2.398280458262563E-01   2.424584778711798E-01
   2.451219868499952E-01   2.478191001648780E-01   2.505503557941127E-01
   2.533163025044257E-01   2.561175000644232E-01   2.589545194587943E-01
   2.618279431029006E-01   2.647383650573393E-01   2.676863912420153E-01
   2.706726396492185E-01   2.736977405551485E-01   2.767623367292713E-01
   2.798670836408420E-01   2.830126496618567E-01   2.861997162656332E-01
   2.894289782201451E-01   2.927011437751542E-01   2.960169348421095E-01
   2.993770871656758E-01   3.027823504856732E-01   3.062334886880952E-01
   3.097312799437626E-01   3.132765168330551E-01   3.168700064550296E-01
   3.205125705190968E-01   3.242050454172908E-01   3.279482822749930E-01
   3.317431469778201E-01   3.355905201722015E-01   3.394912972369752E-01
   3.434463882231454E-01   3.474567177587071E-01   3.515232249152330E-01
   3.556468630326614E-01   3.598285994984728E-01   3.640694154771611E-01
   3.683703055856167E-01   3.727322775097328E-01   3.771563515572111E-01
   3.816435601412073E-01   3.861949471890846E-01   3.908115674701598E-01
   3.954944858359274E-01   4.002447763658096E-01   4.050635214110415E-01
   4.099518105288286E-01   4.149107392984214E-01   4.199414080102374E-01
   4.250449202186274E-01   4.302223811483228E-01   4.354748959440272E-01
   4.408035677520045E-01   4.462094956219130E-01   4.516937722164830E-01
   4.572574813159888E-01   4.629016951037944E-01   4.686274712185763E-01
   4.744358495581312E-01   4.803278488189849E-01   4.863044627553271E-01
   4.923666561401011E-01   4.985153604104047E-01   5.047514689786883E-01
   5.110758321906077E-01   5.174892519097852E-01   5.239924757091772E-01
   5.305861906482426E-01   5.372710166146905E-01   5.440474992092201E-01
   5.509161021514531E-01   5.578771991851018E-01   5.649310654604659E-01
   5.720778683725048E-01   5.793176578331205E-01   5.866503559568454E-01
   5.940757461399797E-01   6.015934615142877E-01   6.092029727578001E-01
   6.169035752470019E-01   6.246943755368299E-01   6.325742771574545E-01
   6.405419657198665E-01   6.485958933258150E-01   6.567342622817572E-01
   6.649550081211949E-01   6.732557819451390E-01   6.816339320965267E-01
   6.900864851912558E-01   6.986101265361405E-01   7.072011799725773E-01
   7.158555871940988E-01   7.245688865962862E-01   7.333361917287797E-01
   7.421521694313452E-01   7.510110177491699E-01   7.599064437367492E-01
   7.688316412748545E-01   7.777792690411449E-01   7.867414287918534E-01
   7.957096441296732E-01   8.046748399512610E-01   8.136273227865676E-01
   8.225567622613186E-01   8.314521739331460E-01   8.403019037708712E-01
   8.490936145649288E-01   8.578142745745185E-01   8.664501487334352E-01
   8.749867927510582E-01   8.834090504573363E-01   8.917010547499936E-01
   8.998462325082175E-01   9.078273138389306E-01   9.156263460187614E-01
   9.232247124863218E-01   9.306031572245532E-01   9.377418148510318E-01
   9.446202467044887E-01   9.512174831776771E-01   9.575120724995274E-01
   9.634821361127553E-01   9.691054307261973E-01   9.743594170440444E-01
   9.792213350866382E-01   9.836682859197793E-01   9.876773195020484E-01
   9.912255282430412E-01   9.942901457409145E-01   9.968486500364712E-01
   9.988788705851001E-01   1.000359098009417E+00   1.001268195557059E+00
   1.001585711052829E+00   1.001291988005743E+00   1.000368274413336E+00
   9.987968277020010E-01   9.965610141577261E-01   9.936454011409380E-01
   9.900358403472244E-01   9.857195403773168E-01   9.806851269197991E-01
   9.749226889331871E-01   9.684238093449523E-01   9.611815789676368E-01
   9.531905925703718E-01   9.444469263408048E-01   9.349480963303938E-01
   9.246929978969997E-01   9.136818266438809E-01   9.019159819038233E-01
   8.893979544305295E-01   8.761312006347062E-01   8.621200064363075E-01
   8.473693445919876E-01   8.318847301905553E-01   8.156720798783019E-01
   7.987375812653165E-01   7.810875798521493E-01   7.627284916743240E-01
   7.436667506508401E-01   7.239088002892994E-01   7.034611398758395E-01
   6.823304354742172E-01   6.605237011671633E-01   6.380484959993993E-01
   6.149129807931845E-01   5.911259198332657E-01   5.666966776766456E-01
   5.416352151576627E-01   5.159520845900483E-01   4.896584241673660E-01
   4.627659515628925E-01   4.352869567296412E-01   4.072342939009318E-01
   3.786213727917511E-01   3.494621490011877E-01   3.197711136165036E-01
   2.895632820200288E-01   2.588541819010410E-01   2.276598404761861E-01
   1.959967709238721E-01   1.638819580404308E-01   1.313328431287458E-01
   9.836730813349778E-02   6.500365904120974E-02   3.126060856784209E-02
  -2.842741838180708E-03  -3.728692064401266E-02  -7.205210549193036E-02
  -1.071181430243777E-01  -1.424645692218121E-01  -1.780706301938281E-01
  -2.139153033571968E-01  -2.499773189277662E-01  -2.862351816469189E-01
  -3.226671926575220E-01  -3.592514714392611E-01  -3.959659777092429E-01
  -4.327885331908640E-01  -4.696968431524122E-01  -5.066685176168637E-01
  -5.436810921459654E-01  -5.807120481051161E-01  -6.177388323207840E-01
  -6.547388760492765E-01  -6.916896131845701E-01  -7.285684976435055E-01
  -7.653530198788964E-01  -8.020207224846885E-01  -8.385492148721538E-01
  -8.749161870117643E-01  -9.110994222518091E-01  -9.470768092414972E-01
  -9.828263530028007E-01  -1.018326185211593E+00  -1.053554573764141E+00
  -1.088489931719521E+00  -1.123110825721551E+00  -1.157395984015353E+00
  -1.191324304183161E+00  -1.224874860731413E+00  -1.258026912666238E+00
  -1.290759911197067E+00  -1.323053507708180E+00  -1.354887562135400E+00
  -1.386242151879981E+00  -1.417097581383906E+00  -1.447434392480521E+00
  -1.477233375621716E+00  -1.506475582067918E+00  -1.535142337110205E+00
  -1.563215254375147E+00  -1.590676251242792E+00  -1.617507565386890E+00
  -1.643691772424347E+00  -1.669211804638432E+00  -1.694050970717803E+00
  -1.718192976431447E+00  -1.741621946138589E+00  -1.764322445012937E+00
  -1.786279501842722E+00  -1.807478632252460E+00  -1.827905862179320E+00
  -1.847547751427082E+00  -1.866391417114113E+00  -1.884424556828834E+00
  -1.901635471307068E+00  -1.918013086450611E+00  -1.933546974515306E+00
  -1.948227374309970E+00  -1.962045210264498E+00  -1.974992110246051E+00
  -1.987060422026478E+00  -1.998243228331026E+00  -2.008534360427910E+00
  -2.017928410249436E+00  -2.026420741067367E+00  -2.034007496777011E+00
  -2.040685609875099E+00  -2.046452808244244E+00  -2.051307620880323E+00
  -2.055249382716745E+00  -2.058278238709645E+00  -2.060395147348723E+00
  -2.061601883747682E+00  -2.061901042445125E+00  -2.061296040010078E+00
  -2.059791117495512E+00  -2.057391342718799E+00  -2.054102612271960E+00
  -2.049931653079735E+00  -2.044886023234719E+00  -2.038974111752120E+00
  -2.032205136809485E+00  -2.024589141977417E+00  -2.016136989914427E+00
  -2.006860353000061E+00  -1.996771700421946E+00  -1.985884281317141E+00
  -1.974212103696127E+00  -1.961769909043939E+00  -1.948573142688297E+00
  -1.934637920235633E+00  -1.919980990586437E+00  -1.904619696233191E+00
  -1.888571931699776E+00  -1.871856101084982E+00  -1.854491075713683E+00
  -1.836496152871145E+00  -1.817891016499505E+00  -1.798695700578457E+00
  -1.778930555706655E+00  -1.758616219163618E+00  -1.737773588484309E+00
  -1.716423798339730E+00  -1.694588200305562E+00  -1.672288344932237E+00
  -1.649545965414128E+00  -1.626382962098001E+00  -1.602821387070855E+00
  -1.578883428119662E+00  -1.554591391451003E+00  -1.529967682685716E+00
  -1.505034785789311E+00  -1.479815239750649E+00  -1.454331612967838E+00
  -1.428606475432188E+00  -1.402662368911852E+00  -1.376521775422416E+00
  -1.350207084330754E+00  -1.323740558471710E+00  -1.297144299666917E+00
  -1.270440214024833E+00  -1.243649977374959E+00  -1.216795001151434E+00
  -1.189896398995617E+00  -1.162974954299374E+00  -1.136051088859373E+00
  -1.109144832762259E+00  -1.082275795578455E+00  -1.055463138900379E+00
  -1.028725550223185E+00  -1.002081218136309E+00  -9.755478087682915E-01
  -9.491424434064735E-01  -9.228816771968417E-01  -8.967814788168414E-01
  -8.708572110049924E-01  -8.451236118249672E-01  -8.195947765380074E-01
  -7.942841399556263E-01  -7.692044591441278E-01  -7.443677963531252E-01
  -7.197855020417179E-01  -6.954681978778879E-01  -6.714257595888645E-01
  -6.476672995423416E-01  -6.242011489402858E-01  -6.010348395084821E-01
  -5.781750845655568E-01  -5.556277593548830E-01  -5.333978805211181E-01
  -5.114895846099498E-01  -4.899061054645740E-01  -4.686497503852496E-01
  -4.477218749085539E-01  -4.271228560504408E-01  -4.068520638414846E-01
  -3.869078309634184E-01  -3.672874202729102E-01  -3.479869899710544E-01
  -3.290015561449162E-01  -3.103249523702801E-01  -2.919497860220567E-01
  -2.738673908901832E-01  -2.560677756438238E-01  -2.385395676246934E-01
  -2.212699513808118E-01  -2.042446012742581E-01  -1.874476074097763E-01
  -1.708613940344902E-01  -1.544666294514847E-01  -1.382421263704008E-01
   0.000000000000000E+00   0.000000000000000E+00   0.000000000000000E+00
   0.000000000000000E+00   0.000000000000000E+00   0.000000000000000E+00
   0.000000000000000E+00   0.000000000000000E+00   0.000000000000000E+00
   0.000000000000000E+00   0.000000000000000E+00   0.000000000000000E+00
   0.000000000000000E+00   0.000000000000000E+00   0.000000000000000E+00
   0.000000000000000E+00   0.000000000000000E+00   0.000000000000000E+00
   0.000000000000000E+00   0.000000000000000E+00   0.000000000000000E+00
   0.000000000000000E+00   0.000000000000000E+00   0.000000000000000E+00
   0.000000000000000E+00   0.000000000000000E+00   0.000000000000000E+00
   0.000000000000000E+00   0.000000000000000E+00   0.000000000000000E+00
   0.000000000000000E+00   0.000000000000000E+00   0.000000000000000E+00
   0.000000000000000E+00   0.000000000000000E+00   0.000000000000000E+00
   0.000000000000000E+00   0.000000000000000E+00   0.000000000000000E+00
   0.000000000000000E+00   0.000000000000000E+00   0.000000000000000E+00
   0.000000000000000E+00   0.000000000000000E+00   0.000000000000000E+00
   0.000000000000000E+00   0.000000000000000E+00   0.000000000000000E+00
   0.000000000000000E+00   0.000000000000000E+00   0.000000000000000E+00
   0.000000000000000E+00   0.000000000000000E+00   0.000000000000000E+00
   0.000000000000000E+00   0.000000000000000E+00   0.000000000000000E+00
   0.000000000000000E+00   0.000000000000000E+00   0.000000000000000E+00
   0.000000000000000E+00   0.000000000000000E+00   0.000000000000000E+00
   0.000000000000000E+00   0.000000000000000E+00   0.000000000000000E+00
   0.000000000000000E+00   0.000000000000000E+00   0.000000000000000E+00
   0.000000000000000E+00   0.000000000000000E+00   0.000000000000000E+00
   0.000000000000000E+00   0.000000000000000E+00   0.000000000000000E+00
   0.000000000000000E+00   0.000000000000000E+00   0.000000000000000E+00
   0.000000000000000E+00   0.000000000000000E+00   0.000000000000000E+00
   0.000000000000000E+00   0.000000000000000E+00   0.000000000000000E+00
   0.000000000000000E+00   0.000000000000000E+00   0.000000000000000E+00
   0.000000000000000E+00   0.000000000000000E+00   0.000000000000000E+00
   0.000000000000000E+00   0.000000000000000E+00   0.000000000000000E+00
   0.000000000000000E+00   0.000000000000000E+00   0.000000000000000E+00
   0.000000000000000E+00   0.000000000000000E+00   0.000000000000000E+00
   0.000000000000000E+00   0.000000000000000E+00   0.000000000000000E+00
   0.000000000000000E+00   0.000000000000000E+00   0.000000000000000E+00
   0.000000000000000E+00   0.000000000000000E+00   0.000000000000000E+00
   0.000000000000000E+00   0.000000000000000E+00   0.000000000000000E+00
   0.000000000000000E+00   0.000000000000000E+00   0.000000000000000E+00
   0.000000000000000E+00   0.000000000000000E+00   0.000000000000000E+00
   0.000000000000000E+00   0.000000000000000E+00   0.000000000000000E+00
   0.000000000000000E+00   0.000000000000000E+00   0.000000000000000E+00
   0.000000000000000E+00   0.000000000000000E+00   0.000000000000000E+00
   0.000000000000000E+00   0.000000000000000E+00   0.000000000000000E+00
   0.000000000000000E+00   0.000000000000000E+00   0.000000000000000E+00
   0.000000000000000E+00   0.000000000000000E+00   0.000000000000000E+00
   0.000000000000000E+00   0.000000000000000E+00   0.000000000000000E+00
   0.000000000000000E+00   0.000000000000000E+00   0.000000000000000E+00
   0.000000000000000E+00   0.000000000000000E+00   0.000000000000000E+00
   0.000000000000000E+00   0.000000000000000E+00   0.000000000000000E+00
   0.000000000000000E+00   0.000000000000000E+00   0.000000000000000E+00
   0.000000000000000E+00   0.000000000000000E+00   0.000000000000000E+00
   0.000000000000000E+00   0.000000000000000E+00   0.000000000000000E+00
   0.000000000000000E+00   0.000000000000000E+00   0.000000000000000E+00
   0.000000000000000E+00   0.000000000000000E+00   0.000000000000000E+00
   0.000000000000000E+00   0.000000000000000E+00   0.000000000000000E+00
   0.000000000000000E+00   0.000000000000000E+00   0.000000000000000E+00
   0.000000000000000E+00   0.000000000000000E+00   0.000000000000000E+00
   0.000000000000000E+00   0.000000000000000E+00   0.000000000000000E+00
   0.000000000000000E+00   0.000000000000000E+00   0.000000000000000E+00
   0.000000000000000E+00   0.000000000000000E+00   0.000000000000000E+00
   0.000000000000000E+00   0.000000000000000E+00   0.000000000000000E+00
   0.000000000000000E+00   0.000000000000000E+00   0.000000000000000E+00
   0.000000000000000E+00   0.000000000000000E+00   0.000000000000000E+00
   0.000000000000000E+00
        </PP_GIPAW_WFS_PS>
      </PP_GIPAW_ORBITAL.3>
      <PP_GIPAW_ORBITAL.4 index="4" label="4P" l="1" cutoff_radius="2.00000000000000" ultrasoft_cutoff_radius="2.00000000000000">
        <PP_GIPAW_WFS_AE size="1525">
   5.920539816302978E-08   6.019832582486317E-08   6.120790577470106E-08
   6.223441728635822E-08   6.327876912662718E-08   6.434258112440416E-08
   6.542583766201416E-08   6.652893908790404E-08   6.765222380273260E-08
   6.879603646831081E-08   6.996072811307828E-08   7.114665624615641E-08
   7.235418496999027E-08   7.358368509574454E-08   7.483553426082736E-08
   7.611011704862935E-08   7.740782511051721E-08   7.872905729012231E-08
   8.007421974996626E-08   8.144372610046624E-08   8.283799753136311E-08
   8.425746294561686E-08   8.570255909581442E-08   8.717373072313560E-08
   8.867143069892448E-08   9.019612016891349E-08   9.174826870014942E-08
   9.332835443067046E-08   9.493686422198552E-08   9.657429381440670E-08
   9.824114798528813E-08   9.993794071022447E-08   1.016651953272637E-07
   1.034234446988075E-07   1.052132314205733E-07   1.070351080847700E-07
   1.088896370668746E-07   1.107773905476353E-07   1.126989520755465E-07
   1.146549153752684E-07   1.166458828774013E-07   1.186724702343960E-07
   1.207353061809246E-07   1.228350286517330E-07   1.249722863220125E-07
   1.271477400007054E-07   1.293620646108080E-07   1.316159486697442E-07
   1.339100883443423E-07   1.362451915467048E-07   1.386219842919804E-07
   1.410412039708728E-07   1.435036012315100E-07   1.460099423217309E-07
   1.485610013030471E-07   1.511575687916979E-07   1.538004538243415E-07
   1.564904771275930E-07   1.592284741624866E-07   1.620152950215677E-07
   1.648518065637647E-07   1.677388921396312E-07   1.706774501449465E-07
   1.736683945646986E-07   1.767126550941642E-07   1.798111769325176E-07
   1.829649266854637E-07   1.861748892917355E-07   1.894420641418223E-07
   1.927674708981879E-07   1.961521469775595E-07   1.995971455859415E-07
   2.031035404894733E-07   2.066724294916462E-07   2.103049284509068E-07
   2.140021707390137E-07   2.177653097585148E-07   2.215955242133994E-07
   2.254940149944634E-07   2.294619966696156E-07   2.335007089486781E-07
   2.376114217065811E-07   2.417954234224821E-07   2.460540206669745E-07
   2.503885465034852E-07   2.548003599030127E-07   2.592908489324273E-07
   2.638614266973900E-07   2.685135239691859E-07   2.732485965728254E-07
   2.780681307238913E-07   2.829736425180035E-07   2.879666752437315E-07
   2.930487971205226E-07   2.982216068351941E-07   3.034867384738778E-07
   3.088458500659556E-07   3.143006257625965E-07   3.198527807955179E-07
   3.255040649215465E-07   3.312562612413350E-07   3.371111830508742E-07
   3.430706802388920E-07   3.491366385367527E-07   3.553109713554162E-07
   3.615956253306330E-07   3.679925901429332E-07   3.745038880313504E-07
   3.811315773508289E-07   3.878777548185631E-07   3.947445564876753E-07
   4.017341631723005E-07   4.088487898573612E-07   4.160906872248463E-07
   4.234621511244443E-07   4.309655225701638E-07   4.386031883783412E-07
   4.463775701871757E-07   4.542911352891133E-07   4.623464053950003E-07
   4.705459433379770E-07   4.788923544391294E-07   4.873882950815084E-07
   4.960364720791275E-07   5.048396372831703E-07   5.138005953475629E-07
   5.229222130837775E-07   5.322074079496107E-07   5.416591416822406E-07
   5.512804300569976E-07   5.610743417262859E-07   5.710440051040922E-07
   5.811926142597803E-07   5.915234202660266E-07   6.020397306079336E-07
   6.127449143877673E-07   6.236424009943658E-07   6.347356866585015E-07
   6.460283405124710E-07   6.575239889128373E-07   6.692263190356815E-07
   6.811390901371402E-07   6.932661298534358E-07   7.056113390908052E-07
   7.181786969866661E-07   7.309722536270148E-07   7.439961303780776E-07
   7.572545283161486E-07   7.707517267828282E-07   7.844920835187760E-07
   7.984800336754798E-07   8.127200988294441E-07   8.272168861140084E-07
   8.419750880658149E-07   8.569994851042333E-07   8.722949397843186E-07
   8.878664086485916E-07   9.037189433759410E-07   9.198576835907814E-07
   9.362878671225351E-07   9.530148396077845E-07   9.700440438925972E-07
   9.873810204237177E-07   1.005031411369142E-06   1.023000960166405E-06
   1.041295523284931E-06   1.059921066864839E-06   1.078883665163237E-06
   1.098189509706766E-06   1.117844913858370E-06   1.137856299805801E-06
   1.158230209449413E-06   1.178973315469497E-06   1.200092411270661E-06
   1.221594417591210E-06   1.243486387546603E-06   1.265775507484784E-06
   1.288469094253195E-06   1.311574597527565E-06   1.335099611978268E-06
   1.359051881892528E-06   1.383439293171981E-06   1.408269877469793E-06
   1.433551819587208E-06   1.459293458874480E-06   1.485503293292742E-06
   1.512189977552506E-06   1.539362330101446E-06   1.567029337924709E-06
   1.595200156066018E-06   1.623884111962845E-06   1.653090710840153E-06
   1.682829640295501E-06   1.713110766214336E-06   1.743944141067156E-06
   1.775340010592219E-06   1.807308812613350E-06   1.839861183127113E-06
   1.873007959593269E-06   1.906760185113336E-06   1.941129111924910E-06
   1.976126205529764E-06   2.011763148999970E-06   2.048051846446565E-06
   2.085004427636801E-06   2.122633254394116E-06   2.160950924252924E-06
   2.199970272716422E-06   2.239704378933279E-06   2.280166570305030E-06
   2.321370428296048E-06   2.363329795372852E-06   2.406058775366826E-06
   2.449571739949853E-06   2.493883336456475E-06   2.539008491747802E-06
   2.584962417224059E-06   2.631760611389085E-06   2.679418869791886E-06
   2.727953291298206E-06   2.777380282283046E-06   2.827716562603050E-06
   2.878979168195104E-06   2.931185462113561E-06   2.984353141171837E-06
   3.038500239416031E-06   3.093645136584654E-06   3.149806563589273E-06
   3.207003606838654E-06   3.265255719460311E-06   3.324582736100312E-06
   3.385004867112004E-06   3.446542702751925E-06   3.509217231975995E-06
   3.573049853640753E-06   3.638062375712248E-06   3.704277020320299E-06
   3.771716441962403E-06   3.840403728881412E-06   3.910362403908420E-06
   3.981616447056373E-06   4.054190308140444E-06   4.128108902405482E-06
   4.203397615255866E-06   4.280082325489564E-06   4.358189415822679E-06
   4.437745772948151E-06   4.518778803185951E-06   4.601316440819929E-06
   4.685387158783518E-06   4.771019979179171E-06   4.858244484035404E-06
   4.947090826284481E-06   5.037589740965057E-06   5.129772556631262E-06
   5.223671206990511E-06   5.319318243044909E-06   5.416746843678918E-06
   5.515990822250948E-06   5.617084648810090E-06   5.720063478289317E-06
   5.824963130790401E-06   5.931820109543463E-06   6.040671648143237E-06
   6.151555698921475E-06   6.264510945760428E-06   6.379576822066062E-06
   6.496793508685694E-06   6.616201981611918E-06   6.737844018477623E-06
   6.861762178724725E-06   6.987999860354077E-06   7.116601314123453E-06
   7.247611641438411E-06   7.381076822571322E-06   7.517043730300799E-06
   7.655560148145611E-06   7.796674788195054E-06   7.940437309408356E-06
   8.086898336273068E-06   8.236109477804798E-06   8.388123346938341E-06
   8.542993580304087E-06   8.700774858391117E-06   8.861522926112892E-06
   9.025294613779254E-06   9.192147858484201E-06   9.362141725917280E-06
   9.535336432607052E-06   9.711793368605142E-06   9.891575120619591E-06
   1.007474549560649E-05   1.026136954482915E-05   1.045151358839191E-05
   1.064524524025226E-05   1.084263343372858E-05   1.104374844753594E-05
   1.124866193233692E-05   1.145744693825988E-05   1.167017793973945E-05
   1.188693085354925E-05   1.210778308305275E-05   1.233281356910911E-05
   1.256210277636660E-05   1.279573275251283E-05   1.303378717804721E-05
   1.327635134305766E-05   1.352351218829900E-05   1.377535836869741E-05
   1.403198025354001E-05   1.429346998483012E-05   1.455992153196211E-05
   1.483143068803234E-05   1.510809512702964E-05   1.539001443443843E-05
   1.567729014615837E-05   1.597002578694832E-05   1.626832690965957E-05
   1.657230113527646E-05   1.688205819376268E-05   1.719770996569237E-05
   1.751937052471607E-05   1.784715618086127E-05   1.818118552468923E-05
   1.852157947232372E-05   1.886846131136906E-05   1.922195674773466E-05
   1.958219395338408E-05   1.994930361502660E-05   2.032341898376981E-05
   2.070467592575208E-05   2.109321297377397E-05   2.148917137994842E-05
   2.189269516938937E-05   2.230393119495929E-05   2.272302919309637E-05
   2.315014184074243E-05   2.358542481339304E-05   2.402903684429189E-05
   2.448113978479181E-05   2.494189866590500E-05   2.541148176106601E-05
   2.589006065013091E-05   2.637781028463698E-05   2.687490905434737E-05
   2.738153885510588E-05   2.789788515802746E-05   2.842413708005032E-05
   2.896048745587642E-05   2.950713291132712E-05   3.006427393814187E-05
   3.063211497024779E-05   3.121086446152886E-05   3.180073496512406E-05
   3.240194321428390E-05   3.301471020481589E-05   3.363926127914983E-05
   3.427582621205426E-05   3.492463929803624E-05   3.558593944045719E-05
   3.625997024239809E-05   3.694698009930783E-05   3.764722229346965E-05
   3.836095509032048E-05   3.908844183665952E-05   3.982995106078335E-05
   4.058575657457957E-05   4.135613757759769E-05   4.214137876314801E-05
   4.294177042735348E-05   4.375760857523493E-05   4.458919501339403E-05
   4.543683748204930E-05   4.630084983236803E-05   4.718155212312940E-05
   4.807927071217208E-05   4.899433830381361E-05   4.992709410453966E-05
   5.087788406779644E-05   5.184706095818631E-05   5.283498446660888E-05
   5.384202136939497E-05   5.486854565890192E-05   5.591493868694173E-05
   5.698158930938186E-05   5.806889403364894E-05   5.917725716909355E-05
   6.030709098031148E-05   6.145881584344074E-05   6.263286040550664E-05
   6.382966174686953E-05   6.504966554683557E-05   6.629332625249054E-05
   6.756110725081855E-05   6.885348104416870E-05   7.017092942913324E-05
   7.151394367890278E-05   7.288302472916468E-05   7.427868336761220E-05
   7.570144042713355E-05   7.715182698275065E-05   7.863038455237899E-05
   8.013766530148176E-05   8.167423225169185E-05   8.324065949347746E-05
   8.483753240292773E-05   8.646544786273725E-05   8.812501448746863E-05
   8.981685285317442E-05   9.154159573146105E-05   9.329988832807861E-05
   9.509238852612272E-05   9.691976713393514E-05   9.878270813779228E-05
   1.006819089594717E-04   1.026180807187892E-04   1.045919485011995E-04
   1.066042516305571E-04   1.086557439471329E-04   1.107471940909870E-04
   1.128793857907975E-04   1.150531181582488E-04   1.172692059880816E-04
   1.195284800639139E-04   1.218317874699392E-04   1.241799919086120E-04
   1.265739740244333E-04   1.290146317339508E-04   1.315028805620879E-04
   1.340396539849219E-04   1.366259037790306E-04   1.392626003775296E-04
   1.419507332329257E-04   1.446913111869121E-04   1.474853628472363E-04
   1.503339369717699E-04   1.532381028599152E-04   1.561989507514852E-04
   1.592175922331937E-04   1.622951606528984E-04   1.654328115417380E-04
   1.686317230443121E-04   1.718930963570493E-04   1.752181561749163E-04
   1.786081511466217E-04   1.820643543384695E-04   1.855880637070225E-04
   1.891806025807366E-04   1.928433201507314E-04   1.965775919708635E-04
   2.003848204672737E-04   2.042664354575799E-04   2.082238946798944E-04
   2.122586843318415E-04   2.163723196197609E-04   2.205663453182795E-04
   2.248423363404420E-04   2.292018983185915E-04   2.336466681961942E-04
   2.381783148308079E-04   2.427985396083944E-04   2.475090770691824E-04
   2.523116955452879E-04   2.572081978103045E-04   2.622004217410796E-04
   2.672902409918944E-04   2.724795656812717E-04   2.777703430916371E-04
   2.831645583820632E-04   2.886642353143320E-04   2.942714369925526E-04
   2.999882666165751E-04   3.058168682494481E-04   3.117594275991674E-04
   3.178181728149710E-04   3.239953752984376E-04   3.302933505296502E-04
   3.367144589086923E-04   3.432611066127451E-04   3.499357464690627E-04
   3.567408788441019E-04   3.636790525490930E-04   3.707528657623374E-04
   3.779649669685268E-04   3.853180559153771E-04   3.928148845878857E-04
   4.004582582005116E-04   4.082510362075946E-04   4.161961333323286E-04
   4.242965206146082E-04   4.325552264780778E-04   4.409753378167116E-04
   4.495600011012628E-04   4.583124235059213E-04   4.672358740555270E-04
   4.763336847936918E-04   4.856092519721851E-04   4.950660372619450E-04
   5.047075689860860E-04   5.145374433752715E-04   5.245593258458345E-04
   5.347769523010267E-04   5.451941304557875E-04   5.558147411854300E-04
   5.666427398986412E-04   5.776821579352063E-04   5.889371039888695E-04
   6.004117655557484E-04   6.121104104087279E-04   6.240373880982637E-04
   6.361971314800313E-04   6.485941582698637E-04   6.612330726264264E-04
   6.741185667620837E-04   6.872554225824185E-04   7.006485133548721E-04
   7.143028054069766E-04   7.282233598546619E-04   7.424153343611218E-04
   7.568839849267312E-04   7.716346677105159E-04   7.866728408836776E-04
   8.020040665156877E-04   8.176340124934684E-04   8.335684544741837E-04
   8.498132778721759E-04   8.663744798805824E-04   8.832581715281784E-04
   9.004705797719973E-04   9.180180496262873E-04   9.359070463283664E-04
   9.541441575419513E-04   9.727360955985323E-04   9.916896997773869E-04
   1.011011938624813E-03   1.030709912313191E-03   1.050790855040469E-03
   1.071262137470692E-03   1.092131269216183E-03   1.113405901362011E-03
   1.135093829033366E-03   1.157202994006489E-03   1.179741487363795E-03
   1.202717552193837E-03   1.226139586336781E-03   1.250016145176037E-03
   1.274355944476728E-03   1.299167863271677E-03   1.324460946795577E-03
   1.350244409468050E-03   1.376527637926277E-03   1.403320194107914E-03
   1.430631818384979E-03   1.458472432749438E-03   1.486852144051211E-03
   1.515781247289304E-03   1.545270228956809E-03   1.575329770440503E-03
   1.605970751475787E-03   1.637204253657697E-03   1.669041564008763E-03
   1.701494178604430E-03   1.734573806256843E-03   1.768292372257724E-03
   1.802662022181120E-03   1.837695125746806E-03   1.873404280745087E-03
   1.909802317023809E-03   1.946902300538337E-03   1.984717537465293E-03
   2.023261578380842E-03   2.062548222504311E-03   2.102591522007937E-03
   2.143405786393527E-03   2.185005586936839E-03   2.227405761200469E-03
   2.270621417616043E-03   2.314667940136514E-03   2.359560992959355E-03
   2.405316525321455E-03   2.451950776366498E-03   2.499480280085637E-03
   2.547921870332249E-03   2.597292685911555E-03   2.647610175745903E-03
   2.698892104116500E-03   2.751156555982363E-03   2.804421942377287E-03
   2.858707005885576E-03   2.914030826197329E-03   2.970412825744031E-03
   3.027872775415200E-03   3.086430800356855E-03   3.146107385852511E-03
   3.206923383287484E-03   3.268900016197169E-03   3.332058886400049E-03
   3.396421980216112E-03   3.462011674771362E-03   3.528850744389129E-03
   3.596962367068796E-03   3.666370131052634E-03   3.737098041481344E-03
   3.809170527138952E-03   3.882612447287633E-03   3.957449098593050E-03
   4.033706222140786E-03   4.111410010544384E-03   4.190587115145535E-03
   4.271264653306900E-03   4.353470215798041E-03   4.437231874274906E-03
   4.522578188853293E-03   4.609538215776687E-03   4.698141515178817E-03
   4.788418158941286E-03   4.880398738646569E-03   4.974114373626628E-03
   5.069596719107410E-03   5.166877974449383E-03   5.265990891484300E-03
   5.366968782948281E-03   5.469845531011306E-03   5.574655595903143E-03
   5.681434024635693E-03   5.790216459821685E-03   5.901039148589634E-03
   6.013938951594864E-03   6.128953352126416E-03   6.246120465309525E-03
   6.365479047403394E-03   6.487068505193831E-03   6.610928905480302E-03
   6.737100984656927E-03   6.865626158386768E-03   6.996546531368830E-03
   7.129904907196993E-03   7.265744798310123E-03   7.404110436032457E-03
   7.545046780703321E-03   7.688599531895149E-03   7.834815138718679E-03
   7.983740810214107E-03   8.135424525826909E-03   8.289915045966947E-03
   8.447261922649335E-03   8.607515510215510E-03   8.770726976132789E-03
   8.936948311870604E-03   9.106232343851545E-03   9.278632744475107E-03
   9.454204043212087E-03   9.633001637767286E-03   9.815081805308172E-03
   1.000050171375699E-02   1.018931943314359E-02   1.038159394701634E-02
   1.057738516390800E-02   1.077675392885364E-02   1.097976203495732E-02
   1.118647223500415E-02   1.139694825311419E-02   1.161125479643455E-02
   1.182945756686577E-02   1.205162327281844E-02   1.227781964099597E-02
   1.250811542819893E-02   1.274258043314657E-02   1.298128550831062E-02
   1.322430257175649E-02   1.347170461898674E-02   1.372356573478127E-02
   1.397996110502893E-02   1.424096702854452E-02   1.450666092886530E-02
   1.477712136602070E-02   1.505242804826881E-02   1.533266184379289E-02
   1.561790479235096E-02   1.590824011687127E-02   1.620375223498618E-02
   1.650452677049673E-02   1.681065056475986E-02   1.712221168799010E-02
   1.743929945046711E-02   1.776200441364023E-02   1.809041840112097E-02
   1.842463450955397E-02   1.876474711935667E-02   1.911085190531770E-02
   1.946304584704359E-02   1.982142723924311E-02   2.018609570183820E-02
   2.055715218989018E-02   2.093469900332945E-02   2.131883979647664E-02
   2.170967958734290E-02   2.210732476669630E-02   2.251188310688145E-02
   2.292346377037854E-02   2.334217731808811E-02   2.376813571732697E-02
   2.420145234952082E-02   2.464224201757818E-02   2.509062095293018E-02
   2.554670682222035E-02   2.601061873362779E-02   2.648247724280701E-02
   2.696240435842723E-02   2.745052354729309E-02   2.794695973902912E-02
   2.845183933030870E-02   2.896529018860892E-02   2.948744165547135E-02
   3.001842454924894E-02   3.055837116731823E-02   3.110741528773597E-02
   3.166569217031859E-02   3.223333855712225E-02   3.281049267230120E-02
   3.339729422132101E-02   3.399388438950327E-02   3.460040583987761E-02
   3.521700271031609E-02   3.584382060992507E-02   3.648100661466856E-02
   3.712870926219675E-02   3.778707854585300E-02   3.845626590783160E-02
   3.913642423145849E-02   3.982770783256648E-02   4.053027244993548E-02
   4.124427523476852E-02   4.196987473917290E-02   4.270723090361594E-02
   4.345650504332373E-02   4.421785983359101E-02   4.499145929396968E-02
   4.577746877130256E-02   4.657605492156913E-02   4.738738569050863E-02
   4.821163029298581E-02   4.904895919106394E-02   4.989954407074926E-02
   5.076355781736999E-02   5.164117448955326E-02   5.253256929176193E-02
   5.343791854535351E-02   5.435739965812225E-02   5.529119109228509E-02
   5.623947233087211E-02   5.720242384248075E-02   5.818022704435340E-02
   5.917306426373683E-02   6.018111869748211E-02   6.120457436984237E-02
   6.224361608842623E-02   6.329842939826345E-02   6.436920053393964E-02
   6.545611636975592E-02   6.655936436786945E-02   6.767913252437015E-02
   6.881560931324859E-02   6.996898362821002E-02   7.113944472228886E-02
   7.232718214521776E-02   7.353238567850547E-02   7.475524526817705E-02
   7.599595095513013E-02   7.725469280306078E-02   7.853166082391205E-02
   7.982704490079894E-02   8.114103470836240E-02   8.247381963050653E-02
   8.382558867547134E-02   8.519653038819525E-02   8.658683275992046E-02
   8.799668313499509E-02   8.942626811482607E-02   9.087577345893699E-02
   9.234538398308560E-02   9.383528345439593E-02   9.534565448346038E-02
   9.687667841336808E-02   9.842853520561552E-02   1.000014033228573E-01
   1.015954596084544E-01   1.032108791627784E-01   1.048478352162326E-01
   1.065064989989479E-01   1.081870396071176E-01   1.098896238659316E-01
   1.116144161890747E-01   1.133615784347530E-01   1.151312697582157E-01
   1.169236464607386E-01   1.187388618350389E-01   1.205770660070918E-01
   1.224384057743218E-01   1.243230244401410E-01   1.262310616448120E-01
   1.281626531926121E-01   1.301179308752794E-01   1.320970222917212E-01
   1.341000506639712E-01   1.361271346493797E-01   1.381783881490271E-01
   1.402539201123519E-01   1.423538343379874E-01   1.444782292708028E-01
   1.466271977951507E-01   1.488008270243217E-01   1.509991980862130E-01
   1.532223859052187E-01   1.554704589803566E-01   1.577434791596437E-01
   1.600415014107429E-01   1.623645735879019E-01   1.647127361952109E-01
   1.670860221462113E-01   1.694844565198876E-01   1.719080563130836E-01
   1.743568301893838E-01   1.768307782245088E-01   1.793298916482765E-01
   1.818541525831845E-01   1.844035337796776E-01   1.869779983481640E-01
   1.895774994878552E-01   1.922019802125038E-01   1.948513730731238E-01
   1.975255998777815E-01   2.002245714085508E-01   2.029481871357355E-01
   2.056963349294638E-01   2.084688907687712E-01   2.112657184482924E-01
   2.140866692826902E-01   2.169315818089609E-01   2.198002814867587E-01
   2.226925803968944E-01   2.256082769381716E-01   2.285471555227336E-01
   2.315089862701033E-01   2.344935247001130E-01   2.375005114249277E-01
   2.405296718403822E-01   2.435807158168634E-01   2.466533373899838E-01
   2.497472144513058E-01   2.528620084393955E-01   2.559973640314956E-01
   2.591529088361317E-01   2.623282530869769E-01   2.655229893383259E-01
   2.687366921625448E-01   2.719689178498854E-01   2.752192041110745E-01
   2.784870697831088E-01   2.817720145387088E-01   2.850735185999059E-01
   2.883910424562577E-01   2.917240265882065E-01   2.950718911961124E-01
   2.984340359355108E-01   3.018098396591516E-01   3.051986601663901E-01
   3.085998339604969E-01   3.120126760144533E-01   3.154364795457845E-01
   3.188705158009581E-01   3.223140338498465E-01   3.257662603906972E-01
   3.292263995660008E-01   3.326936327895591E-01   3.361671185849640E-01
   3.396459924355749E-01   3.431293666459509E-01   3.466163302145268E-01
   3.501059487171467E-01   3.535972642008638E-01   3.570892950872008E-01
   3.605810360838295E-01   3.640714581033908E-01   3.675595081879290E-01
   3.710441094371831E-01   3.745241609387516E-01   3.779985376979602E-01
   3.814660905651092E-01   3.849256461576789E-01   3.883760067750484E-01
   3.918159503033313E-01   3.952442301080847E-01   3.986595749128983E-01
   4.020606886622334E-01   4.054462503673573E-01   4.088149139348092E-01
   4.121653079775288E-01   4.154960356095633E-01   4.188056742261375E-01
   4.220927752717920E-01   4.253558640002471E-01   4.285934392306013E-01
   4.318039731054049E-01   4.349859108570112E-01   4.381376705893854E-01
   4.412576430832012E-01   4.443441916325480E-01   4.473956519218795E-01
   4.504103319519257E-01   4.533865120231357E-01   4.563224447848007E-01
   4.592163553573088E-01   4.620664415339975E-01   4.648708740678075E-01
   4.676277970464244E-01   4.703353283578722E-01   4.729915602466500E-01
   4.755945599585718E-01   4.781423704705640E-01   4.806330112999149E-01
   4.830644793859379E-01   4.854347500358099E-01   4.877417779255419E-01
   4.899834981466701E-01   4.921578272893294E-01   4.942626645528637E-01
   4.962958928759856E-01   4.982553800796294E-01   5.001389800169715E-01
   5.019445337265062E-01   5.036698705854737E-01   5.053128094622710E-01
   5.068711598676419E-01   5.083427231054350E-01   5.097252934244783E-01
   5.110166591736552E-01   5.122146039626058E-01   5.133169078305911E-01
   5.143213484260454E-01   5.152257021991580E-01   5.160277456095741E-01
   5.167252563509601E-01   5.173160145938083E-01   5.177978042474655E-01
   5.181684142419790E-01   5.184256398299898E-01   5.185672839085625E-01
   5.185911583605443E-01   5.184950854147854E-01   5.182768990243446E-01
   5.179344462616314E-01   5.174655887293103E-01   5.168682039857027E-01
   5.161401869833725E-01   5.152794515195498E-01   5.142839316970593E-01
   5.131515833944370E-01   5.118803857439596E-01   5.104683426163737E-01
   5.089134841111639E-01   5.072138680512777E-01   5.053675814812981E-01
   5.033727421681269E-01   5.012275001033212E-01   4.989300390062982E-01
   4.964785778276926E-01   4.938713722522224E-01   4.911067162004782E-01
   4.881829433291121E-01   4.850984285289572E-01   4.818515894206585E-01
   4.784408878474380E-01   4.748648313646636E-01   4.711219747259216E-01
   4.672109213653295E-01   4.631303248758506E-01   4.588788904833981E-01
   4.544553765165351E-01   4.498585958715942E-01   4.450874174730508E-01
   4.401407677289944E-01   4.350176319815445E-01   4.297170559520601E-01
   4.242381471809830E-01   4.185800764621508E-01   4.127420792713980E-01
   4.067234571892490E-01   4.005235793174766E-01   3.941418836892783E-01
   3.875778786727812E-01   3.808311443675501E-01   3.739013339937244E-01
   3.667881752733607E-01   3.594914718034934E-01   3.520111044203689E-01
   3.443470325542308E-01   3.364992955739632E-01   3.284680141208106E-01
   3.202533914303108E-01   3.118557146414787E-01   3.032753560921813E-01
   2.945127745995458E-01   2.855685167241292E-01   2.764432180164735E-01
   2.671376042445578E-01   2.576524926005461E-01   2.479887928851173E-01
   2.381475086675558E-01   2.281297384196729E-01   2.179366766215277E-01
   2.075696148368266E-01   1.970299427557882E-01   1.863191492031975E-01
   1.754388231093091E-01   1.643906544412206E-01   1.531764350923194E-01
   1.417980597274073E-01   1.302575265811390E-01   1.185569382074699E-01
   1.066985021779031E-01   9.468453172645351E-02   8.251744633941570E-02
   7.019977228823195E-02   5.773414310400968E-02   4.512329999253521E-02
   3.237009218897297E-02   1.947747725182686E-02   6.448521296169678E-03
  -6.713600833386009E-03  -2.000560544900117E-02  -3.342409996370354E-02
  -4.696558289121376E-02  -6.062644389891027E-02  -7.440296391079922E-02
  -8.829131525684535E-02  -1.022875618645582E-01  -1.163876594883371E-01
  -1.305874559717829E-01  -1.448826915380114E-01  -1.592689991029879E-01
  -1.737419046070673E-01  -1.882968273603060E-01  -2.029290803977453E-01
  -2.176338708417738E-01  -2.324063002699015E-01  -2.472413650878413E-01
  -2.621339569097242E-01  -2.770788629496044E-01  -2.920707664311550E-01
  -3.071042470256453E-01  -3.221737813319377E-01  -3.372737434163825E-01
  -3.523984054351171E-01  -3.675419383664366E-01  -3.826984128865820E-01
  -3.978618004285117E-01  -4.130259744699543E-01  -4.281847121042396E-01
  -4.433316959549800E-01  -4.584605165034193E-01  -4.735646749049015E-01
  -4.886375863779251E-01  -5.036725842549280E-01  -5.186629247872183E-01
  -5.336017927958774E-01  -5.484823082540304E-01  -5.632975338710903E-01
  -5.780404837233464E-01  -5.927041329339918E-01  -6.072814283455240E-01
  -6.217653000447295E-01  -6.361486734923872E-01  -6.504244818755125E-01
  -6.645856781418575E-01  -6.786252460017895E-01  -6.925362090054470E-01
  -7.063116366448379E-01  -7.199446463208985E-01  -7.334283999905860E-01
  -7.467560944075055E-01  -7.599209441257679E-01  -7.729161568715577E-01
  -7.857349014968520E-01  -7.983702694781143E-01  -8.108152317349319E-01
  -8.230625933108402E-01  -8.351049490523679E-01  -8.469346437178272E-01
  -8.585437398524199E-01  -8.699239962482320E-01  -8.810668589098749E-01
  -8.919634652867442E-01  -9.026046612832488E-01  -9.129810294095146E-01
  -9.230829255546449E-01  -9.329005213620770E-01  -9.424238490941133E-01
  -9.516428461469661E-01  -9.605473969194893E-01  -9.691273704229851E-01
  -9.773726527248510E-01  -9.852731739501499E-01  -9.928189300638328E-01
  -1.000000000000000E+00  -1.006806558899722E+00  -1.013228888290090E+00
  -1.019257384016433E+00  -1.024882562659436E+00  -1.030095067056941E+00
  -1.034885671427430E+00  -1.039245286472572E+00  -1.043164964728557E+00
  -1.046635906343894E+00  -1.049649465386245E+00  -1.052197156721722E+00
  -1.054270663465341E+00  -1.055861844968743E+00  -1.056962745288859E+00
  -1.057565602066892E+00  -1.057662855739075E+00  -1.057247158997741E+00
  -1.056311386422016E+00  -1.054848644200965E+00  -1.052852279877383E+00
  -1.050315892047068E+00  -1.047233339955657E+00  -1.043598752942630E+00
  -1.039406539689508E+00  -1.034651397236322E+00  -1.029328319736959E+00
  -1.023432606929861E+00  -1.016959872305681E+00  -1.009906050957878E+00
  -1.002267407105817E+00  -9.940405412828216E-01  -9.852223971837866E-01
  -9.758102681684551E-01  -9.658018034174259E-01  -9.551950137383696E-01
  -9.439882770199188E-01  -9.321803433303036E-01  -9.197703396570998E-01
  -9.067577742835032E-01  -8.931425407954228E-01  -8.789249217124182E-01
  -8.641055917341927E-01  -8.486856205930182E-01  -8.326664755011821E-01
  -8.160500231813518E-01  -7.988385314667277E-01  -7.810346704570232E-01
  -7.626415132157527E-01  -7.436625359940724E-01  -7.241016179665527E-01
  -7.039630404648288E-01  -6.832514856961243E-01  -6.619720349352100E-01
  -6.401301661805001E-01  -6.177317512677191E-01  -5.947830524379132E-01
  -5.712907183605416E-01  -5.472617796169499E-01  -5.227036436546925E-01
  -4.976240892288070E-01  -4.720312603521664E-01  -4.459336597836312E-01
  -4.193401420894426E-01  -3.922599063198949E-01  -3.647024883501151E-01
  -3.366777529402690E-01  -3.081958855764785E-01  -2.792673841591413E-01
  -2.499030506099048E-01  -2.201139824721014E-01  -1.899115645818275E-01
  -1.593074608878909E-01  -1.283136064984388E-01  -9.694220003011662E-02
  -6.520569633204119E-02  -3.311679965169051E-02  -6.884573030338968E-04
   3.206614611107005E-02   6.513359387989015E-02   9.850024173791080E-02
   1.321522217707082E-01   1.660754456672471E-01   2.002556073257847E-01
   2.346781848344939E-01   2.693284418619474E-01   3.041914285064630E-01
   3.392519816667222E-01   3.744947250087723E-01   4.099040686162431E-01
   4.454642084211098E-01   4.811591255213883E-01   5.169725854995582E-01
   5.528881378610918E-01   5.888891157160812E-01   6.249586358284827E-01
   6.610795991568629E-01   6.972346920076836E-01   7.334063879170982E-01
   7.695769503699964E-01   8.057284364556868E-01   8.418427015482786E-01
   8.779014050866785E-01   9.138860175143512E-01   9.497778284228644E-01
   9.855579559260311E-01   1.021207357273499E+00   1.056706840694289E+00
   1.092037078442431E+00   1.127178620998896E+00   1.162111912366939E+00
   1.196817306382120E+00   1.231275083944158E+00   1.265465471065824E+00
   1.299368657624606E+00   1.332964816696410E+00   1.366234124347278E+00
   1.399156779759393E+00   1.431713025571698E+00   1.463883168323349E+00
   1.495647598900120E+00   1.526986812899585E+00   1.557881430850371E+00
   1.588312218243463E+00   1.618260105359218E+00   1.647706206901344E+00
   1.676631841478069E+00   1.705018550999491E+00   1.732848120087539E+00
   1.760102595619154E+00   1.786764306542280E+00   1.812815884115941E+00
   1.838240282727558E+00   1.863020801430678E+00   1.887141106322017E+00
   1.910585253836854E+00   1.933337714985152E+00   1.955383400477739E+00
   1.976707686604003E+00   1.997296441623313E+00   2.017136052326996E+00
   2.036213450323525E+00   2.054516137505435E+00   2.072032210082599E+00
   2.088750380523079E+00   2.104659996739678E+00   2.119751057904873E+00
   2.134014226373407E+00   2.147440835340117E+00   2.160022892055085E+00
   2.171753076648149E+00   2.182624736864295E+00   2.192631879261171E+00
   2.201769157648227E+00   2.210031859733040E+00   2.217415893065476E+00
   2.223917771421168E+00   2.229534602734604E+00   2.234264079580311E+00
   2.238104473015807E+00   2.241054630356373E+00   2.243113977170361E+00
   2.244282523487508E+00   2.244560873925179E+00   2.243950241181024E+00
   2.242452462133277E+00   2.240070015644652E+00   2.236806041089160E+00
   2.232664356613317E+00   2.227649476198684E+00   2.221766624701282E+00
   2.215021750191959E+00   2.207421533095331E+00   2.198973391808814E+00
   2.189685484663965E+00   2.179566708258621E+00   2.168626692331896E+00
   2.156875791469578E+00   2.144325074012392E+00   2.130986308594124E+00
   2.116871948762763E+00   2.101995116139057E+00   2.086369582547494E+00
   2.070009751519442E+00   2.052930639522675E+00   2.035147857217572E+00
   2.016677590979463E+00   1.997536584872098E+00   1.977742123204055E+00
   1.957312013741965E+00   1.936264571607637E+00   1.914618603844818E+00
   1.892393394602208E+00   1.869608690847729E+00   1.846284688501837E+00
   1.822442018855625E+00   1.798101735121874E+00   1.773285298953874E+00
   1.748014566757322E+00   1.722311775614715E+00   1.696199528639027E+00
   1.669700779574016E+00   1.642838816462028E+00   1.615637244206561E+00
   1.588119965866024E+00   1.560311162527006E+00   1.532235271619858E+00
   1.503916963556381E+00   1.475381116588752E+00   1.446652789810360E+00
   1.417757194242694E+00   1.388719661977592E+00   1.359565613370639E+00
   1.330320522309002E+00   1.301009879605000E+00   1.271659154594863E+00
   1.242293755049968E+00   1.212938985534800E+00   1.183620004371668E+00
   1.154361779396215E+00   1.125189042709699E+00   1.096126244653488E+00
   1.067197507247902E+00   1.038426577351212E+00   1.009836779805081E+00
   9.814509708398960E-01   9.532914920172489E-01   9.253801249872834E-01
   8.977380473358298E-01   8.703857897903176E-01   8.433431950445802E-01
   0.000000000000000E+00   0.000000000000000E+00   0.000000000000000E+00
   0.000000000000000E+00   0.000000000000000E+00   0.000000000000000E+00
   0.000000000000000E+00   0.000000000000000E+00   0.000000000000000E+00
   0.000000000000000E+00   0.000000000000000E+00   0.000000000000000E+00
   0.000000000000000E+00   0.000000000000000E+00   0.000000000000000E+00
   0.000000000000000E+00   0.000000000000000E+00   0.000000000000000E+00
   0.000000000000000E+00   0.000000000000000E+00   0.000000000000000E+00
   0.000000000000000E+00   0.000000000000000E+00   0.000000000000000E+00
   0.000000000000000E+00   0.000000000000000E+00   0.000000000000000E+00
   0.000000000000000E+00   0.000000000000000E+00   0.000000000000000E+00
   0.000000000000000E+00   0.000000000000000E+00   0.000000000000000E+00
   0.000000000000000E+00   0.000000000000000E+00   0.000000000000000E+00
   0.000000000000000E+00   0.000000000000000E+00   0.000000000000000E+00
   0.000000000000000E+00   0.000000000000000E+00   0.000000000000000E+00
   0.000000000000000E+00   0.000000000000000E+00   0.000000000000000E+00
   0.000000000000000E+00   0.000000000000000E+00   0.000000000000000E+00
   0.000000000000000E+00   0.000000000000000E+00   0.000000000000000E+00
   0.000000000000000E+00   0.000000000000000E+00   0.000000000000000E+00
   0.000000000000000E+00   0.000000000000000E+00   0.000000000000000E+00
   0.000000000000000E+00   0.000000000000000E+00   0.000000000000000E+00
   0.000000000000000E+00   0.000000000000000E+00   0.000000000000000E+00
   0.000000000000000E+00   0.000000000000000E+00   0.000000000000000E+00
   0.000000000000000E+00   0.000000000000000E+00   0.000000000000000E+00
   0.000000000000000E+00   0.000000000000000E+00   0.000000000000000E+00
   0.000000000000000E+00   0.000000000000000E+00   0.000000000000000E+00
   0.000000000000000E+00   0.000000000000000E+00   0.000000000000000E+00
   0.000000000000000E+00   0.000000000000000E+00   0.000000000000000E+00
   0.000000000000000E+00   0.000000000000000E+00   0.000000000000000E+00
   0.000000000000000E+00   0.000000000000000E+00   0.000000000000000E+00
   0.000000000000000E+00   0.000000000000000E+00   0.000000000000000E+00
   0.000000000000000E+00   0.000000000000000E+00   0.000000000000000E+00
   0.000000000000000E+00   0.000000000000000E+00   0.000000000000000E+00
   0.000000000000000E+00   0.000000000000000E+00   0.000000000000000E+00
   0.000000000000000E+00   0.000000000000000E+00   0.000000000000000E+00
   0.000000000000000E+00   0.000000000000000E+00   0.000000000000000E+00
   0.000000000000000E+00   0.000000000000000E+00   0.000000000000000E+00
   0.000000000000000E+00   0.000000000000000E+00   0.000000000000000E+00
   0.000000000000000E+00   0.000000000000000E+00   0.000000000000000E+00
   0.000000000000000E+00   0.000000000000000E+00   0.000000000000000E+00
   0.000000000000000E+00   0.000000000000000E+00   0.000000000000000E+00
   0.000000000000000E+00   0.000000000000000E+00   0.000000000000000E+00
   0.000000000000000E+00   0.000000000000000E+00   0.000000000000000E+00
   0.000000000000000E+00   0.000000000000000E+00   0.000000000000000E+00
   0.000000000000000E+00   0.000000000000000E+00   0.000000000000000E+00
   0.000000000000000E+00   0.000000000000000E+00   0.000000000000000E+00
   0.000000000000000E+00   0.000000000000000E+00   0.000000000000000E+00
   0.000000000000000E+00   0.000000000000000E+00   0.000000000000000E+00
   0.000000000000000E+00   0.000000000000000E+00   0.000000000000000E+00
   0.000000000000000E+00   0.000000000000000E+00   0.000000000000000E+00
   0.000000000000000E+00   0.000000000000000E+00   0.000000000000000E+00
   0.000000000000000E+00   0.000000000000000E+00   0.000000000000000E+00
   0.000000000000000E+00   0.000000000000000E+00   0.000000000000000E+00
   0.000000000000000E+00   0.000000000000000E+00   0.000000000000000E+00
   0.000000000000000E+00   0.000000000000000E+00   0.000000000000000E+00
   0.000000000000000E+00   0.000000000000000E+00   0.000000000000000E+00
   0.000000000000000E+00   0.000000000000000E+00   0.000000000000000E+00
   0.000000000000000E+00   0.000000000000000E+00   0.000000000000000E+00
   0.000000000000000E+00   0.000000000000000E+00   0.000000000000000E+00
   0.000000000000000E+00   0.000000000000000E+00   0.000000000000000E+00
   0.000000000000000E+00   0.000000000000000E+00   0.000000000000000E+00
   0.000000000000000E+00   0.000000000000000E+00   0.000000000000000E+00
   0.000000000000000E+00   0.000000000000000E+00   0.000000000000000E+00
   0.000000000000000E+00   0.000000000000000E+00   0.000000000000000E+00
   0.000000000000000E+00
        </PP_GIPAW_WFS_AE>
        <PP_GIPAW_WFS_PS size="1525">
  -4.625906115207173E-10  -4.719359328072225E-10  -4.814700384146487E-10
  -4.911967420759898E-10  -5.011199345663891E-10  -5.112435852595009E-10
  -5.215717437152883E-10  -5.321085412998976E-10  -5.428581928382544E-10
  -5.538249983000494E-10  -5.650133445197779E-10  -5.764277069515307E-10
  -5.880726514592302E-10  -5.999528361430338E-10  -6.120730132026347E-10
  -6.244380308381988E-10  -6.370528351897088E-10  -6.499224723154811E-10
  -6.630520902106541E-10  -6.764469408664521E-10  -6.901123823710484E-10
  -7.040538810528682E-10  -7.182770136671924E-10  -7.327874696269273E-10
  -7.475910532784441E-10  -7.626936862233933E-10  -7.781014096874193E-10
  -7.938203869367302E-10  -8.098569057434829E-10  -8.262173809009714E-10
  -8.429083567896299E-10  -8.599365099948665E-10  -8.773086519777860E-10
  -8.950317317998602E-10  -9.131128389026430E-10  -9.315592059436407E-10
  -9.503782116894683E-10  -9.695773839674471E-10  -9.891644026768415E-10
  -1.009147102860913E-09  -1.029533477841040E-09  -1.050331682414152E-09
  -1.071550036114755E-09  -1.093197026542850E-09  -1.115281312759087E-09
  -1.137811728748504E-09  -1.160797286954230E-09  -1.184247181882586E-09
  -1.208170793781008E-09  -1.232577692390262E-09  -1.257477640772472E-09
  -1.282880599216472E-09  -1.308796729222048E-09  -1.335236397564675E-09
  -1.362210180442364E-09  -1.389728867706274E-09  -1.417803467176802E-09
  -1.446445209046852E-09  -1.475665550374057E-09  -1.505476179663757E-09
  -1.535889021544551E-09  -1.566916241538310E-09  -1.598570250926544E-09
  -1.630863711715075E-09  -1.663809541699013E-09  -1.697420919630034E-09
  -1.731711290488064E-09  -1.766694370859442E-09  -1.802384154423741E-09
  -1.838794917551420E-09  -1.875941225014560E-09  -1.913837935812968E-09
  -1.952500209117972E-09  -1.991943510336295E-09  -2.032183617296411E-09
  -2.073236626559890E-09  -2.115118959860240E-09  -2.157847370671814E-09
  -2.201438950911421E-09  -2.245911137775315E-09  -2.291281720714310E-09
  -2.337568848549798E-09  -2.384791036733509E-09  -2.432967174753942E-09
  -2.482116533692410E-09  -2.532258773931727E-09  -2.583413953020624E-09
  -2.635602533697033E-09  -2.688845392073449E-09  -2.743163825987663E-09
  -2.798579563522166E-09  -2.855114771695669E-09  -2.912792065330227E-09
  -2.971634516097439E-09  -3.031665661747442E-09  -3.092909515524313E-09
  -3.155390575771694E-09  -3.219133835732445E-09  -3.284164793546276E-09
  -3.350509462449341E-09  -3.418194381179891E-09  -3.487246624594096E-09
  -3.557693814496370E-09  -3.629564130688450E-09  -3.702886322241683E-09
  -3.777689718997050E-09  -3.854004243297486E-09  -3.931860421957207E-09
  -4.011289398472853E-09  -4.092322945481298E-09  -4.174993477469129E-09
  -4.259334063738864E-09  -4.345378441637110E-09  -4.433161030049967E-09
  -4.522716943171014E-09  -4.614082004547473E-09  -4.707292761410097E-09
  -4.802386499292549E-09  -4.899401256946111E-09  -4.998375841555707E-09
  -5.099349844263254E-09  -5.202363656004671E-09  -5.307458483666789E-09
  -5.414676366570656E-09  -5.524060193287806E-09  -5.635653718796279E-09
  -5.749501581983186E-09  -5.865649323500859E-09  -5.984143403983713E-09
  -6.105031222633117E-09  -6.228361136177713E-09  -6.354182478216744E-09
  -6.482545578954141E-09  -6.613501785331302E-09  -6.747103481566528E-09
  -6.883404110109407E-09  -7.022458193018504E-09  -7.164321353770923E-09
  -7.309050339512432E-09  -7.456703043757060E-09  -7.607338529545304E-09
  -7.761017053070108E-09  -7.917800087780146E-09  -8.077750348970015E-09
  -8.240931818867198E-09  -8.407409772225790E-09  -8.577250802437278E-09
  -8.750522848168772E-09  -8.927295220539422E-09  -9.107638630845707E-09
  -9.291625218846957E-09  -9.479328581622203E-09  -9.670823803009966E-09
  -9.866187483642828E-09  -1.006549777158866E-08  -1.026883439361092E-08
  -1.047627868706043E-08  -1.068791363241132E-08  -1.090382388645445E-08
  -1.112409581616112E-08  -1.134881753323110E-08  -1.157807892933843E-08
  -1.181197171208931E-08  -1.205058944170637E-08  -1.229402756845395E-08
  -1.254238347081953E-08  -1.279575649446641E-08  -1.305424799197330E-08
  -1.331796136337666E-08  -1.358700209753214E-08  -1.386147781431148E-08
  -1.414149830765192E-08  -1.442717558947522E-08  -1.471862393449395E-08
  -1.501595992592282E-08  -1.531930250211360E-08  -1.562877300413196E-08
  -1.594449522429559E-08  -1.626659545569271E-08  -1.659520254270103E-08
  -1.693044793252717E-08  -1.727246572778729E-08  -1.762139274014994E-08
  -1.797736854506259E-08  -1.834053553758357E-08  -1.871103898934206E-08
  -1.908902710664860E-08  -1.947465108977969E-08  -1.986806519345979E-08
  -2.026942678856530E-08  -2.067889642507503E-08  -2.109663789629230E-08
  -2.152281830436447E-08  -2.195760812712596E-08  -2.240118128629167E-08
  -2.285371521702802E-08  -2.331539093892926E-08  -2.378639312842781E-08
  -2.426691019266730E-08  -2.475713434486781E-08  -2.525726168121387E-08
  -2.576749225929536E-08  -2.628803017813329E-08  -2.681908365982219E-08
  -2.736086513282157E-08  -2.791359131693020E-08  -2.847748330997687E-08
  -2.905276667626248E-08  -2.963967153678873E-08  -3.023843266130963E-08
  -3.084928956224238E-08  -3.147248659047567E-08  -3.210827303311319E-08
  -3.275690321319175E-08  -3.341863659141395E-08  -3.409373786993580E-08
  -3.478247709825118E-08  -3.548512978121515E-08  -3.620197698924954E-08
  -3.693330547077496E-08  -3.767940776691375E-08  -3.844058232851046E-08
  -3.921713363551616E-08  -4.000937231878421E-08  -4.081761528432705E-08
  -4.164218584008256E-08  -4.248341382524169E-08  -4.334163574218831E-08
  -4.421719489110472E-08  -4.511044150729622E-08  -4.602173290128986E-08
  -4.695143360176341E-08  -4.789991550136171E-08  -4.886755800545851E-08
  -4.985474818392362E-08  -5.086188092595621E-08  -5.188935909804542E-08
  -5.293759370512244E-08  -5.400700405496767E-08  -5.509801792593981E-08
  -5.621107173809239E-08  -5.734661072774782E-08  -5.850508912559779E-08
  -5.968697033840136E-08  -6.089272713435393E-08  -6.212284183220074E-08
  -6.337780649417051E-08  -6.465812312280722E-08  -6.596430386177732E-08
  -6.729687120073420E-08  -6.865635818432077E-08  -7.004330862539442E-08
  -7.145827732255944E-08  -7.290183028209353E-08  -7.437454494435788E-08
  -7.587701041478102E-08  -7.740982769950833E-08  -7.897360994581277E-08
  -8.056898268736173E-08  -8.219658409443870E-08  -8.385706522921983E-08
  -8.555109030620729E-08  -8.727933695792380E-08  -8.904249650597432E-08
  -9.084127423758425E-08  -9.267638968772296E-08  -9.454857692692763E-08
  -9.645858485494109E-08  -9.840717750028107E-08  -1.003951343258622E-07
  -1.024232505407910E-07  -1.044923374184598E-07  -1.066032226210672E-07
  -1.087567505306933E-07  -1.109537825870638E-07  -1.131951976321371E-07
  -1.154818922616524E-07  -1.178147811837797E-07  -1.201947975850155E-07
  -1.226228935034689E-07  -1.251000402096895E-07  -1.276272285951883E-07
  -1.302054695688071E-07  -1.328357944610955E-07  -1.355192554368560E-07
  -1.382569259160241E-07  -1.410499010030498E-07  -1.438992979249540E-07
  -1.468062564782334E-07  -1.497719394847940E-07  -1.527975332570951E-07
  -1.558842480726896E-07  -1.590333186583505E-07  -1.622460046839778E-07
  -1.655235912664826E-07  -1.688673894838503E-07  -1.722787368995892E-07
  -1.757589980977729E-07  -1.793095652288914E-07  -1.829318585667292E-07
  -1.866273270764933E-07  -1.903974489944181E-07  -1.942437324190786E-07
  -1.981677159146490E-07  -2.021709691263483E-07  -2.062550934083191E-07
  -2.104217224641888E-07  -2.146725230005725E-07  -2.190091953937773E-07
  -2.234334743699739E-07  -2.279471296991093E-07  -2.325519669028380E-07
  -2.372498279767531E-07  -2.420425921272079E-07  -2.469321765230228E-07
  -2.519205370623768E-07  -2.570096691551924E-07  -2.622016085213241E-07
  -2.674984320048717E-07  -2.729022584049457E-07  -2.784152493232127E-07
  -2.840396100285632E-07  -2.897775903392478E-07  -2.956314855228325E-07
  -3.016036372143341E-07  -3.076964343529048E-07  -3.139123141374366E-07
  -3.202537630014723E-07  -3.267233176078102E-07  -3.333235658631997E-07
  -3.400571479535376E-07  -3.469267573999754E-07  -3.539351421363606E-07
  -3.610851056084446E-07  -3.683795078952969E-07  -3.758212668533704E-07
  -3.834133592836815E-07  -3.911588221225663E-07  -3.990607536564937E-07
  -4.071223147614184E-07  -4.153467301671677E-07  -4.237372897473770E-07
  -4.322973498354760E-07  -4.410303345672655E-07  -4.499397372506130E-07
  -4.590291217628176E-07  -4.683021239762056E-07  -4.777624532125231E-07
  -4.874138937267085E-07  -4.972603062206424E-07  -5.073056293874736E-07
  -5.175538814871451E-07  -5.280091619537443E-07  -5.386756530353280E-07
  -5.495576214668706E-07  -5.606594201770104E-07  -5.719854900292704E-07
  -5.835403615984597E-07  -5.953286569829556E-07  -6.073550916535969E-07
  -6.196244763399292E-07  -6.321417189545513E-07  -6.449118265563410E-07
  -6.579399073533351E-07  -6.712311727460741E-07  -6.847909394122203E-07
  -6.986246314332936E-07  -7.127377824643660E-07  -7.271360379475864E-07
  -7.418251573704233E-07  -7.568110165695266E-07  -7.720996100811259E-07
  -7.876970535389188E-07  -8.036095861203886E-07  -8.198435730425500E-07
  -8.364055081081058E-07  -8.533020163030408E-07  -8.705398564466904E-07
  -8.881259238953440E-07  -9.060672533004633E-07  -9.243710214226221E-07
  -9.430445500022884E-07  -9.620953086886018E-07  -9.815309180273132E-07
  -1.001359152509090E-06  -1.021587943679390E-06  -1.042225383311169E-06
  -1.063279726641678E-06  -1.084759395674641E-06  -1.106672982549153E-06
  -1.129029252976618E-06  -1.151837149747132E-06  -1.175105796306691E-06
  -1.198844500406663E-06  -1.223062757826987E-06  -1.247770256174578E-06
  -1.272976878758469E-06  -1.298692708543243E-06  -1.324928032182309E-06
  -1.351693344132675E-06  -1.378999350852834E-06  -1.406856975085445E-06
  -1.435277360226547E-06  -1.464271874783019E-06  -1.493852116920099E-06
  -1.524029919100753E-06  -1.554817352818781E-06  -1.586226733427521E-06
  -1.618270625066114E-06  -1.650961845685268E-06  -1.684313472174557E-06
  -1.718338845593306E-06  -1.753051576507119E-06  -1.788465550432238E-06
  -1.824594933389870E-06  -1.861454177572720E-06  -1.899058027125987E-06
  -1.937421524045159E-06  -1.976560014192931E-06  -2.016489153437681E-06
  -2.057224913915945E-06  -2.098783590421402E-06  -2.141181806922929E-06
  -2.184436523214309E-06  -2.228565041698298E-06  -2.273585014307704E-06
  -2.319514449566303E-06  -2.366371719792383E-06  -2.414175568447804E-06
  -2.462945117635520E-06  -2.512699875748565E-06  -2.563459745273535E-06
  -2.615245030751727E-06  -2.668076446901089E-06  -2.721975126902252E-06
  -2.776962630851934E-06  -2.833060954387112E-06  -2.890292537483415E-06
  -2.948680273431264E-06  -3.008247517993307E-06  -3.069018098746866E-06
  -3.131016324615100E-06  -3.194266995590708E-06  -3.258795412656061E-06
  -3.324627387903726E-06  -3.391789254861423E-06  -3.460307879025574E-06
  -3.530210668607615E-06  -3.601525585497413E-06  -3.674281156448132E-06
  -3.748506484487069E-06  -3.824231260556958E-06  -3.901485775392467E-06
  -3.980300931636601E-06  -4.060708256201862E-06  -4.142739912881115E-06
  -4.226428715213191E-06  -4.311808139608399E-06  -4.398912338739168E-06
  -4.487776155201200E-06  -4.578435135450578E-06  -4.670925544022411E-06
  -4.765284378036713E-06  -4.861549381997305E-06  -4.959759062889645E-06
  -5.059952705583661E-06  -5.162170388547725E-06  -5.266452999880053E-06
  -5.372842253663958E-06  -5.481380706653469E-06  -5.592111775296009E-06
  -5.705079753098963E-06  -5.820329828347021E-06  -5.937908102177440E-06
  -6.057861607020409E-06  -6.180238325411947E-06  -6.305087209186822E-06
  -6.432458199059165E-06  -6.562402244598578E-06  -6.694971324609826E-06
  -6.830218467924198E-06  -6.968197774610818E-06  -7.108964437616426E-06
  -7.252574764842358E-06  -7.399086201667377E-06  -7.548557353925561E-06
  -7.701048011348289E-06  -7.856619171479783E-06  -8.015333064075736E-06
  -8.177253175994781E-06  -8.342444276592804E-06  -8.510972443630157E-06
  -8.682905089702259E-06  -8.858310989204046E-06  -9.037260305839138E-06
  -9.219824620684610E-06  -9.406076960822792E-06  -9.596091828551313E-06
  -9.789945231183225E-06  -9.987714711449057E-06  -1.018947937851303E-05
  -1.039531993961572E-05  -1.060531873235593E-05  -1.081955975762467E-05
  -1.103812871320431E-05  -1.126111302804648E-05  -1.148860189724233E-05
  -1.172068631769919E-05  -1.195745912453786E-05  -1.219901502822515E-05
  -1.244545065245639E-05  -1.269686457280313E-05  -1.295335735614167E-05
  -1.321503160087775E-05  -1.348199197798396E-05  -1.375434527286596E-05
  -1.403220042807432E-05  -1.431566858687925E-05  -1.460486313772533E-05
  -1.489989975958426E-05  -1.520089646822367E-05  -1.550797366341048E-05
  -1.582125417706773E-05  -1.614086332240412E-05  -1.646692894403588E-05
  -1.679958146912101E-05  -1.713895395952640E-05  -1.748518216504868E-05
  -1.783840457770985E-05  -1.819876248714988E-05  -1.856640003713788E-05
  -1.894146428322492E-05  -1.932410525156112E-05  -1.971447599890082E-05
  -2.011273267381986E-05  -2.051903457916911E-05  -2.093354423578954E-05
  -2.135642744751428E-05  -2.178785336748331E-05  -2.222799456579780E-05
  -2.267702709854082E-05  -2.313513057819209E-05  -2.360248824546494E-05
  -2.407928704259419E-05  -2.456571768810417E-05  -2.506197475308699E-05
  -2.556825673902129E-05  -2.608476615716275E-05  -2.661170960953794E-05
  -2.714929787157421E-05  -2.769774597639819E-05  -2.825727330083707E-05
  -2.882810365315661E-05  -2.941046536257118E-05  -3.000459137056176E-05
  -3.061071932403802E-05  -3.122909167038194E-05  -3.185995575441102E-05
  -3.250356391729978E-05  -3.316017359749894E-05  -3.383004743369282E-05
  -3.451345336983592E-05  -3.521066476231096E-05  -3.592196048925089E-05
  -3.664762506206864E-05  -3.738794873923940E-05  -3.814322764238042E-05
  -3.891376387467557E-05  -3.969986564169088E-05  -4.050184737463021E-05
  -4.132002985607987E-05  -4.215474034829284E-05  -4.300631272406327E-05
  -4.387508760024402E-05  -4.476141247396031E-05  -4.566564186157427E-05
  -4.658813744045550E-05  -4.752926819361464E-05  -4.848941055725729E-05
  -4.946894857131774E-05  -5.046827403303240E-05  -5.148778665361428E-05
  -5.252789421809099E-05  -5.358901274837055E-05  -5.467156666959964E-05
  -5.577598897988106E-05  -5.690272142341811E-05  -5.805221466715500E-05
  -5.922492848098405E-05  -6.042133192159124E-05  -6.164190352001415E-05
  -6.288713147298649E-05  -6.415751383814627E-05  -6.545355873318542E-05
  -6.677578453901989E-05  -6.812472010706197E-05  -6.950090497067780E-05
  -7.090488956091341E-05  -7.233723542657653E-05  -7.379851545876167E-05
  -7.528931411990796E-05  -7.681022767748154E-05  -7.836186444237538E-05
  -7.994484501212186E-05  -8.155980251901582E-05  -8.320738288324607E-05
  -8.488824507113714E-05  -8.660306135860399E-05  -8.835251759992522E-05
  -9.013731350194192E-05  -9.195816290379109E-05  -9.381579406228601E-05
  -9.571094994305728E-05  -9.764438851757032E-05  -9.961688306613808E-05
  -1.016292224870500E-04  -1.036822116119408E-04  -1.057766715275240E-04
  -1.079134399038195E-04  -1.100933713290060E-04  -1.123173376510309E-04
  -1.145862283261156E-04  -1.169009507742935E-04  -1.192624307421247E-04
  -1.216716126727281E-04  -1.241294600832839E-04  -1.266369559501523E-04
  -1.291951031017648E-04  -1.318049246194438E-04  -1.344674642463098E-04
  -1.371837868044400E-04  -1.399549786204447E-04  -1.427821479596303E-04
  -1.456664254689232E-04  -1.486089646287298E-04  -1.516109422139132E-04
  -1.546735587640713E-04  -1.577980390633019E-04  -1.609856326296476E-04
  -1.642376142144141E-04  -1.675552843115620E-04  -1.709399696773747E-04
  -1.743930238606090E-04  -1.779158277433388E-04  -1.815097900927106E-04
  -1.851763481238265E-04  -1.889169680739805E-04  -1.927331457884780E-04
  -1.966264073182690E-04  -2.005983095296354E-04  -2.046504407261739E-04
  -2.087844212833222E-04  -2.130019042956817E-04  -2.173045762373916E-04
  -2.216941576358219E-04  -2.261724037588484E-04  -2.307411053159864E-04
  -2.354020891736600E-04  -2.401572190848935E-04  -2.450083964337124E-04
  -2.499575609945535E-04  -2.550066917069810E-04  -2.601578074660225E-04
  -2.654129679284338E-04  -2.707742743352163E-04  -2.762438703507112E-04
  -2.818239429186077E-04  -2.875167231352009E-04  -2.933244871402479E-04
  -2.992495570257782E-04  -3.052943017632144E-04  -3.114611381491770E-04
  -3.177525317703429E-04  -3.241709979877456E-04  -3.307191029409045E-04
  -3.373994645721836E-04  -3.442147536717837E-04  -3.511676949437840E-04
  -3.582610680936566E-04  -3.654977089376842E-04  -3.728805105347209E-04
  -3.804124243407419E-04  -3.880964613866470E-04  -3.959356934797763E-04
  -4.039332544296177E-04  -4.120923412981929E-04  -4.204162156756130E-04
  -4.289082049813152E-04  -4.375717037914878E-04  -4.464101751932139E-04
  -4.554271521658668E-04  -4.646262389903077E-04  -4.740111126864377E-04
  -4.835855244796760E-04  -4.933533012969395E-04  -5.033183472927227E-04
  -5.134846454058716E-04  -5.238562589476740E-04  -5.344373332218897E-04
  -5.452320971773595E-04  -5.562448650938467E-04  -5.674800383017773E-04
  -5.789421069365508E-04  -5.906356517281228E-04  -6.025653458265583E-04
  -6.147359566642783E-04  -6.271523478557289E-04  -6.398194811352259E-04
  -6.527424183337368E-04  -6.659263233953752E-04  -6.793764644344048E-04
  -6.930982158335566E-04  -7.070970603844947E-04  -7.213785914712574E-04
  -7.359485152975462E-04  -7.508126531587223E-04  -7.659769437594204E-04
  -7.814474455776714E-04  -7.972303392764717E-04  -8.133319301637471E-04
  -8.297586507016613E-04  -8.465170630662733E-04  -8.636138617585270E-04
  -8.810558762676046E-04  -8.988500737876833E-04  -9.170035619891623E-04
  -9.355235918454354E-04  -9.544175605163199E-04  -9.736930142892659E-04
  -9.933576515794966E-04  -1.013419325990242E-03  -1.033886049434274E-03
  -1.054765995317944E-03  -1.076067501788975E-03  -1.097799075049263E-03
  -1.119969392733984E-03  -1.142587307358322E-03  -1.165661849833148E-03
  -1.189202233051029E-03  -1.213217855543943E-03  -1.237718305214138E-03
  -1.262713363139563E-03  -1.288213007455364E-03  -1.314227417312921E-03
  -1.340766976917997E-03  -1.367842279649522E-03  -1.395464132260629E-03
  -1.423643559163553E-03  -1.452391806800045E-03  -1.481720348098993E-03
  -1.511640887022971E-03  -1.542165363205444E-03  -1.573305956680447E-03
  -1.605075092706523E-03  -1.637485446686794E-03  -1.670549949187039E-03
  -1.704281791053724E-03  -1.738694428633915E-03  -1.773801589099092E-03
  -1.809617275874905E-03  -1.846155774178908E-03  -1.883431656668442E-03
  -1.921459789200773E-03  -1.960255336707701E-03  -1.999833769186863E-03
  -2.040210867812023E-03  -2.081402731164653E-03  -2.123425781589174E-03
  -2.166296771674269E-03  -2.210032790862717E-03  -2.254651272192235E-03
  -2.300169999169900E-03  -2.346607112782710E-03  -2.393981118646950E-03
  -2.442310894299027E-03  -2.491615696630549E-03  -2.541915169470390E-03
  -2.593229351316621E-03  -2.645578683221177E-03  -2.698984016830207E-03
  -2.753466622583120E-03  -2.809048198073350E-03  -2.865750876573992E-03
  -2.923597235731437E-03  -2.982610306430237E-03  -3.042813581832505E-03
  -3.104231026595148E-03  -3.166887086268367E-03  -3.230806696878859E-03
  -3.296015294701280E-03  -3.362538826221486E-03  -3.430403758295298E-03
  -3.499637088506394E-03  -3.570266355727207E-03  -3.642319650886576E-03
  -3.715825627948157E-03  -3.790813515103507E-03  -3.867313126183906E-03
  -3.945354872295054E-03  -4.024969773678807E-03  -4.106189471806247E-03
  -4.189046241706372E-03  -4.273573004534856E-03  -4.359803340387347E-03
  -4.447771501361869E-03  -4.537512424874948E-03  -4.629061747236199E-03
  -4.722455817486134E-03  -4.817731711502092E-03  -4.914927246377225E-03
  -5.014080995077570E-03  -5.115232301382338E-03  -5.218421295112623E-03
  -5.323688907653736E-03  -5.431076887776680E-03  -5.540627817764030E-03
  -5.652385129845934E-03  -5.766393122951695E-03  -5.882696979782811E-03
  -6.001342784213117E-03  -6.122377539022028E-03  -6.245849183966807E-03
  -6.371806614199935E-03  -6.500299699037788E-03  -6.631379301086787E-03
  -6.765097295733415E-03  -6.901506591004597E-03  -7.040661147804818E-03
  -7.182616000536757E-03  -7.327427278112054E-03  -7.475152225359061E-03
  -7.625849224834528E-03  -7.779577819046063E-03  -7.936398733092627E-03
  -8.096373897730205E-03  -8.259566472869869E-03  -8.426040871515701E-03
  -8.595862784149944E-03  -8.769099203573045E-03  -8.945818450206226E-03
  -9.126090197864204E-03  -9.309985500006111E-03  -9.497576816472387E-03
  -9.688938040715713E-03  -9.884144527534149E-03  -1.008327312131457E-02
  -1.028640218479480E-02  -1.049361162835270E-02  -1.070498293983083E-02
  -1.092059921490501E-02  -1.114054518800564E-02  -1.136490726380016E-02
  -1.159377354924590E-02  -1.182723388622160E-02  -1.206537988474697E-02
  -1.230830495679908E-02  -1.255610435073456E-02  -1.280887518632705E-02
  -1.306671649042858E-02  -1.332972923326455E-02  -1.359801636537132E-02
  -1.387168285518591E-02  -1.415083572729694E-02  -1.443558410136641E-02
  -1.472603923173176E-02  -1.502231454769744E-02  -1.532452569452571E-02
  -1.563279057513599E-02  -1.594722939252227E-02  -1.626796469289814E-02
  -1.659512140957885E-02  -1.692882690760980E-02  -1.726921102915106E-02
  -1.761640613962715E-02  -1.797054717465134E-02  -1.833177168773410E-02
  -1.870021989878449E-02  -1.907603474341395E-02  -1.945936192305137E-02
  -1.985034995587848E-02  -2.024915022859410E-02  -2.065591704901655E-02
  -2.107080769953187E-02  -2.149398249139714E-02  -2.192560481990642E-02
  -2.236584122042761E-02  -2.281486142531797E-02  -2.327283842172583E-02
  -2.373994851028564E-02  -2.421637136471359E-02  -2.470229009231046E-02
  -2.519789129537782E-02  -2.570336513355399E-02  -2.621890538707505E-02
  -2.674470952096649E-02  -2.728097875017013E-02  -2.782791810561045E-02
  -2.838573650120482E-02  -2.895464680182029E-02  -2.953486589218007E-02
  -3.012661474672170E-02  -3.073011850040886E-02  -3.134560652049697E-02
  -3.197331247925347E-02  -3.261347442763158E-02  -3.326633486989641E-02
  -3.393214083920111E-02  -3.461114397410988E-02  -3.530360059606368E-02
  -3.600977178778334E-02  -3.672992347260402E-02  -3.746432649473373E-02
  -3.821325670042712E-02  -3.897699502006478E-02  -3.975582755112723E-02
  -4.055004564205074E-02  -4.135994597695089E-02  -4.218583066119862E-02
  -4.302800730783155E-02  -4.388678912478126E-02  -4.476249500289634E-02
  -4.565544960473793E-02  -4.656598345412409E-02  -4.749443302639546E-02
  -4.844114083937315E-02  -4.940645554497847E-02  -5.039073202148023E-02
  -5.139433146633306E-02  -5.241762148956874E-02  -5.346097620769796E-02
  -5.452477633807779E-02  -5.560940929369831E-02  -5.671526927833546E-02
  -5.784275738201704E-02  -5.899228167674371E-02  -6.016425731240235E-02
  -6.135910661280732E-02  -6.257725917179907E-02  -6.381915194932589E-02
  -6.508522936743119E-02  -6.637594340606198E-02  -6.769175369861066E-02
  -6.903312762709743E-02  -7.040054041689313E-02  -7.179447523087977E-02
  -7.321542326293716E-02  -7.466388383063911E-02  -7.614036446703748E-02
  -7.764538101140273E-02  -7.917945769878490E-02  -8.074312724825070E-02
  -8.233693094964462E-02  -8.396141874871428E-02  -8.561714933043092E-02
  -8.730469020032788E-02  -8.902461776367031E-02  -9.077751740226060E-02
  -9.256398354867160E-02  -9.438461975769204E-02  -9.624003877475568E-02
  -9.813086260111460E-02  -1.000577225555052E-01  -1.020212593320430E-01
  -1.040221230540686E-01  -1.060609733236545E-01  -1.081384792664668E-01
  -1.102553195716627E-01  -1.124121825264866E-01  -1.146097660452131E-01
  -1.168487776920695E-01  -1.191299346977480E-01  -1.214539639691044E-01
  -1.238216020916179E-01  -1.262335953241657E-01  -1.286906995856491E-01
  -1.311936804329800E-01  -1.337433130299191E-01  -1.363403821062291E-01
  -1.389856819065846E-01  -1.416800161286507E-01  -1.444241978497188E-01
  -1.472190494412572E-01  -1.500654024707058E-01  -1.529640975898130E-01
  -1.559159844087801E-01  -1.589219213554472E-01  -1.619827755187176E-01
  -1.650994224753817E-01  -1.682727460994645E-01  -1.715036383531824E-01
  -1.747929990585500E-01  -1.781417356486400E-01  -1.815507628974518E-01
  -1.850210026272994E-01  -1.885533833925810E-01  -1.921488401387436E-01
  -1.958083138352019E-01  -1.995327510809213E-01  -2.033231036813152E-01
  -2.071803281950511E-01  -2.111053854492991E-01  -2.150992400218953E-01
  -2.191628596888272E-01  -2.232972148353843E-01  -2.275032778292438E-01
  -2.317820223536960E-01  -2.361344226991374E-01  -2.405614530108826E-01
  -2.450640864912727E-01  -2.496432945539770E-01  -2.543000459282967E-01
  -2.590353057112053E-01  -2.638500343647660E-01  -2.687451866564784E-01
  -2.737217105400266E-01  -2.787805459737922E-01  -2.839226236744177E-01
  -2.891488638026047E-01  -2.944601745782333E-01  -2.998574508217971E-01
  -3.053415724190498E-01  -3.109134027056596E-01  -3.165737867685772E-01
  -3.223235496607179E-01  -3.281634945254723E-01  -3.340944006274617E-01
  -3.401170212858691E-01  -3.462320817065866E-01  -3.524402767093365E-01
  -3.587422683458500E-01  -3.651386834051170E-01  -3.716301108016543E-01
  -3.782170988426862E-01  -3.849001523700901E-01  -3.916797297729205E-01
  -3.985562398663201E-01  -4.055300386326079E-01  -4.126014258203597E-01
  -4.197706413973247E-01  -4.270378618530886E-01  -4.344031963474592E-01
  -4.418666827006781E-01  -4.494282832216904E-01  -4.570878803708853E-01
  -4.648452722539325E-01  -4.727001679435930E-01  -4.806521826266852E-01
  -4.887008325737380E-01  -4.968455299292664E-01  -5.050855773210712E-01
  -5.134201622874931E-01  -5.218483515221617E-01  -5.303690849364323E-01
  -5.389811695404905E-01  -5.476832731449193E-01  -5.564739178854857E-01
  -5.653514735749307E-01  -5.743141508866826E-01  -5.833599943766857E-01
  -5.924868753509025E-01  -6.016924845875419E-01  -6.109743249247038E-01
  -6.203297037258957E-01  -6.297557252377696E-01  -6.392492828565015E-01
  -6.488070513214131E-01  -6.584254788568028E-01  -6.681007792854491E-01
  -6.778289241399086E-01  -6.876056348005419E-01  -6.974263746921483E-01
  -7.072863415741912E-01  -7.171804599628361E-01  -7.271033737263565E-01
  -7.370494388989371E-01  -7.470127167614519E-01  -7.569869672414009E-01
  -7.669656426878653E-01  -7.769418820809931E-01  -7.869085057391634E-01
  -7.968580105905704E-01  -8.067825660794072E-01  -8.166740107800992E-01
  -8.265238497961074E-01  -8.363232530225607E-01  -8.460630543543413E-01
  -8.557337519231636E-01  -8.653255094485472E-01  -8.748281587883086E-01
  -8.842312037741661E-01  -8.935238254171659E-01  -9.026948885657874E-01
  -9.117329500966452E-01  -9.206262687135491E-01  -9.293628164252207E-01
  -9.379302917650150E-01  -9.463161348075071E-01  -9.545075440266305E-01
  -9.624914950280712E-01  -9.702547611748120E-01  -9.777839361089187E-01
  -9.850654581549095E-01  -9.920856365702267E-01  -9.988306795865517E-01
  -1.005286724161930E+00  -1.011439867338019E+00  -1.017276199069427E+00
  -1.022781836363209E+00  -1.027942958536418E+00  -1.032745843368582E+00
  -1.037176903894362E+00  -1.041222725550145E+00  -1.044870103357367E+00
  -1.048106078795793E+00  -1.050917975992553E+00  -1.053293436828385E+00
  -1.055220454542389E+00  -1.056687405401784E+00  -1.057683077995085E+00
  -1.058196699707161E+00  -1.058217959944583E+00  -1.057737029701123E+00
  -1.056744577088339E+00  -1.055231778506854E+00  -1.053190325202569E+00
  -1.050612425041055E+00  -1.047490799445311E+00  -1.043818675579836E+00
  -1.039589774030342E+00  -1.034798292426542E+00  -1.029438885688435E+00
  -1.023506643847504E+00  -1.016997068706490E+00  -1.009906050957878E+00
  -1.002229849784725E+00  -9.939650775117105E-01  -9.851086930873157E-01
  -9.756580057232566E-01  -9.656106808687727E-01  -9.549647460077487E-01
  -9.437185961029454E-01  -9.318709986844255E-01  -9.194210985785363E-01
  -9.063684222728847E-01  -8.927128819115899E-01  -8.784547789138499E-01
  -8.635948072075300E-01  -8.481340560681780E-01  -8.320740125525372E-01
  -8.154165635144830E-01  -7.981639971902518E-01  -7.803190043390302E-01
  -7.618846789243990E-01  -7.428645183218904E-01  -7.232624230380834E-01
  -7.030826959271984E-01  -6.823300408922446E-01  -6.610095610593069E-01
  -6.391267564157439E-01  -6.166875209057813E-01  -5.936981389803372E-01
  -5.701652816019025E-01  -5.460960017098331E-01  -5.214977291566401E-01
  -4.963782651314497E-01  -4.707457760928367E-01  -4.446087872399277E-01
  -4.179761755572345E-01  -3.908571624753965E-01  -3.632613061967763E-01
  -3.351984937413011E-01  -3.066789327739416E-01  -2.777131432806060E-01
  -2.483119491637699E-01  -2.184864698327196E-01  -1.882481118656384E-01
  -1.576085608217921E-01  -1.265797732816430E-01  -9.517396919073648E-02
  -6.340362457962193E-02  -3.128146472686155E-02   1.179542174610501E-03
   3.396619079584074E-02   6.706504385270462E-02   1.004624366580332E-01
   1.341444810258726E-01   1.680970685216618E-01   2.023058730656821E-01
   2.367563529110652E-01   2.714337520316856E-01   3.063231009691215E-01
   3.414092172012871E-01   3.766767051080323E-01   4.121099556207263E-01
   4.476931456533282E-01   4.834102374215023E-01   5.192449777637245E-01
   5.551808975839025E-01   5.912013115386130E-01   6.272893180935913E-01
   6.634278000734267E-01   6.995994258255633E-01   7.357866511146133E-01
   7.719717218557168E-01   8.081366777863197E-01   8.442633571643893E-01
   8.803334025678858E-01   9.163282678555522E-01   9.522292263329027E-01
   9.880173801500715E-01   1.023673670940185E+00   1.059178891688578E+00
   1.094513699804766E+00   1.129658631351172E+00   1.164594116365466E+00
   1.199300495197555E+00   1.233758035768153E+00   1.267946951643873E+00
   1.301847420814405E+00   1.335439605050777E+00   1.368703669720552E+00
   1.401619803936028E+00   1.434168240915652E+00   1.466329278446756E+00
   1.498083299349676E+00   1.529410791859021E+00   1.560292369857367E+00
   1.590708792919473E+00   1.620640986150623E+00   1.650070059830580E+00
   1.678977328903465E+00   1.707344332382807E+00   1.735152852768368E+00
   1.762384935595499E+00   1.789022909256804E+00   1.815049405247574E+00
   1.840447378988176E+00   1.865200131366496E+00   1.889291331119399E+00
   1.912705038132208E+00   1.935425727678372E+00   1.957438315548431E+00
   1.978728183929320E+00   1.999281207795785E+00   2.019083781470203E+00
   2.038122844902894E+00   2.056385909130912E+00   2.073861080299441E+00
   2.090537081586649E+00   2.106403272369896E+00   2.121449664015961E+00
   2.135666931774775E+00   2.149046422404646E+00   2.161580157351722E+00
   2.173260831536439E+00   2.184081808049440E+00   2.194037109308983E+00
   2.203121405460287E+00   2.211330000982933E+00   2.218658820597630E+00
   2.225104395614030E+00   2.230663851829874E+00   2.235334899979986E+00
   2.239115829548236E+00   2.242005506512043E+00   2.244003375307584E+00
   2.245109465007403E+00   2.245324399414762E+00   2.244649410522536E+00
   2.243086354577358E+00   2.240637729844509E+00   2.237306695092524E+00
   2.233097087808797E+00   2.228013441212922E+00   2.222060999243345E+00
   2.215245728841377E+00   2.207574329030363E+00   2.199054236471605E+00
   2.189693627359480E+00   2.179501415684423E+00   2.168487248036033E+00
   2.156661495234003E+00   2.144035241159498E+00   2.130620269214085E+00
   2.116429046859360E+00   2.101474708691693E+00   2.085771038487038E+00
   2.069332450614975E+00   2.052173971176885E+00   2.034311219167265E+00
   2.015760387896863E+00   1.996538226864177E+00   1.976662024204593E+00
   1.956149589790781E+00   1.935019239011794E+00   1.913289777214959E+00
   1.890980484756927E+00   1.868111102578076E+00   1.844701818187303E+00
   1.820773251922230E+00   1.796346443332201E+00   1.771442837518101E+00
   1.746084271253518E+00   1.720292958705832E+00   1.694091476573184E+00
   1.667502748453841E+00   1.640550028267878E+00   1.613256882557581E+00
   1.585647171501998E+00   1.557745028492970E+00   1.529574838134387E+00
   1.501161212543325E+00   1.472528965851003E+00   1.443703086822931E+00
   1.414708709541035E+00   1.385571082115507E+00   1.356315533420577E+00
   1.326967437875641E+00   1.297552178321124E+00   1.268095107066300E+00
   1.238621505213982E+00   1.209156540393657E+00   1.179725223060156E+00
   1.150352361538618E+00   1.121062516018114E+00   1.091879951715344E+00
   1.062828591446094E+00   1.033931967855323E+00   1.005213175566691E+00
   9.766948235189258E-01   9.483989877595939E-01   9.203471649665722E-01
   8.925602269639796E-01   8.650583764925102E-01   8.378611044843185E-01
   0.000000000000000E+00   0.000000000000000E+00   0.000000000000000E+00
   0.000000000000000E+00   0.000000000000000E+00   0.000000000000000E+00
   0.000000000000000E+00   0.000000000000000E+00   0.000000000000000E+00
   0.000000000000000E+00   0.000000000000000E+00   0.000000000000000E+00
   0.000000000000000E+00   0.000000000000000E+00   0.000000000000000E+00
   0.000000000000000E+00   0.000000000000000E+00   0.000000000000000E+00
   0.000000000000000E+00   0.000000000000000E+00   0.000000000000000E+00
   0.000000000000000E+00   0.000000000000000E+00   0.000000000000000E+00
   0.000000000000000E+00   0.000000000000000E+00   0.000000000000000E+00
   0.000000000000000E+00   0.000000000000000E+00   0.000000000000000E+00
   0.000000000000000E+00   0.000000000000000E+00   0.000000000000000E+00
   0.000000000000000E+00   0.000000000000000E+00   0.000000000000000E+00
   0.000000000000000E+00   0.000000000000000E+00   0.000000000000000E+00
   0.000000000000000E+00   0.000000000000000E+00   0.000000000000000E+00
   0.000000000000000E+00   0.000000000000000E+00   0.000000000000000E+00
   0.000000000000000E+00   0.000000000000000E+00   0.000000000000000E+00
   0.000000000000000E+00   0.000000000000000E+00   0.000000000000000E+00
   0.000000000000000E+00   0.000000000000000E+00   0.000000000000000E+00
   0.000000000000000E+00   0.000000000000000E+00   0.000000000000000E+00
   0.000000000000000E+00   0.000000000000000E+00   0.000000000000000E+00
   0.000000000000000E+00   0.000000000000000E+00   0.000000000000000E+00
   0.000000000000000E+00   0.000000000000000E+00   0.000000000000000E+00
   0.000000000000000E+00   0.000000000000000E+00   0.000000000000000E+00
   0.000000000000000E+00   0.000000000000000E+00   0.000000000000000E+00
   0.000000000000000E+00   0.000000000000000E+00   0.000000000000000E+00
   0.000000000000000E+00   0.000000000000000E+00   0.000000000000000E+00
   0.000000000000000E+00   0.000000000000000E+00   0.000000000000000E+00
   0.000000000000000E+00   0.000000000000000E+00   0.000000000000000E+00
   0.000000000000000E+00   0.000000000000000E+00   0.000000000000000E+00
   0.000000000000000E+00   0.000000000000000E+00   0.000000000000000E+00
   0.000000000000000E+00   0.000000000000000E+00   0.000000000000000E+00
   0.000000000000000E+00   0.000000000000000E+00   0.000000000000000E+00
   0.000000000000000E+00   0.000000000000000E+00   0.000000000000000E+00
   0.000000000000000E+00   0.000000000000000E+00   0.000000000000000E+00
   0.000000000000000E+00   0.000000000000000E+00   0.000000000000000E+00
   0.000000000000000E+00   0.000000000000000E+00   0.000000000000000E+00
   0.000000000000000E+00   0.000000000000000E+00   0.000000000000000E+00
   0.000000000000000E+00   0.000000000000000E+00   0.000000000000000E+00
   0.000000000000000E+00   0.000000000000000E+00   0.000000000000000E+00
   0.000000000000000E+00   0.000000000000000E+00   0.000000000000000E+00
   0.000000000000000E+00   0.000000000000000E+00   0.000000000000000E+00
   0.000000000000000E+00   0.000000000000000E+00   0.000000000000000E+00
   0.000000000000000E+00   0.000000000000000E+00   0.000000000000000E+00
   0.000000000000000E+00   0.000000000000000E+00   0.000000000000000E+00
   0.000000000000000E+00   0.000000000000000E+00   0.000000000000000E+00
   0.000000000000000E+00   0.000000000000000E+00   0.000000000000000E+00
   0.000000000000000E+00   0.000000000000000E+00   0.000000000000000E+00
   0.000000000000000E+00   0.000000000000000E+00   0.000000000000000E+00
   0.000000000000000E+00   0.000000000000000E+00   0.000000000000000E+00
   0.000000000000000E+00   0.000000000000000E+00   0.000000000000000E+00
   0.000000000000000E+00   0.000000000000000E+00   0.000000000000000E+00
   0.000000000000000E+00   0.000000000000000E+00   0.000000000000000E+00
   0.000000000000000E+00   0.000000000000000E+00   0.000000000000000E+00
   0.000000000000000E+00   0.000000000000000E+00   0.000000000000000E+00
   0.000000000000000E+00   0.000000000000000E+00   0.000000000000000E+00
   0.000000000000000E+00   0.000000000000000E+00   0.000000000000000E+00
   0.000000000000000E+00   0.000000000000000E+00   0.000000000000000E+00
   0.000000000000000E+00   0.000000000000000E+00   0.000000000000000E+00
   0.000000000000000E+00   0.000000000000000E+00   0.000000000000000E+00
   0.000000000000000E+00   0.000000000000000E+00   0.000000000000000E+00
   0.000000000000000E+00   0.000000000000000E+00   0.000000000000000E+00
   0.000000000000000E+00   0.000000000000000E+00   0.000000000000000E+00
   0.000000000000000E+00   0.000000000000000E+00   0.000000000000000E+00
   0.000000000000000E+00
        </PP_GIPAW_WFS_PS>
      </PP_GIPAW_ORBITAL.4>
      <PP_GIPAW_ORBITAL.5 index="5" label="3D" l="2" cutoff_radius="2.00000000000000" ultrasoft_cutoff_radius="2.00000000000000">
        <PP_GIPAW_WFS_AE size="1525">
   3.319187059167994E-13   3.406546450126843E-13   3.496205097817129E-13
   3.588223517559075E-13   3.682710553689999E-13   3.779830041638874E-13
   3.879625964787541E-13   3.982174626955522E-13   4.087549264680578E-13
   4.195825147891678E-13   4.307079631902616E-13   4.421392214298982E-13
   4.538844592591569E-13   4.659520723596612E-13   4.783506884467617E-13
   4.910891735433316E-13   5.041766384288266E-13   5.176224452684267E-13
   5.314362144272120E-13   5.456278314744677E-13   5.602074543833537E-13
   5.751855209313271E-13   5.905727563068555E-13   6.063801809281165E-13
   6.226191184795428E-13   6.393012041722332E-13   6.564383932344266E-13
   6.740429696384054E-13   6.921275550703807E-13   7.107051181500910E-13
   7.297889839070460E-13   7.493928435205304E-13   7.695307643306978E-13
   7.902172000332198E-13   8.114670019429709E-13   8.332954314553419E-13
   8.557181642397891E-13   8.787512989060927E-13   9.024113935780039E-13
   9.267154529762507E-13   9.516809104445642E-13   9.773257201669953E-13
   1.003668364856549E-12   1.030727793110620E-12   1.058523457476033E-12
   1.087075351381141E-12   1.116404058671991E-12   1.146530754651613E-12
   1.177477100550999E-12   1.209265334817057E-12   1.241918411563612E-12
   1.275459879536280E-12   1.309913932419428E-12   1.345305468464499E-12
   1.381659943993861E-12   1.419003567037793E-12   1.457363351659575E-12
   1.496766991473322E-12   1.537242937399147E-12   1.578820411058715E-12
   1.621529466835205E-12   1.665401002479154E-12   1.710466743628824E-12
   1.756759272393061E-12   1.804312046581062E-12   1.853159413261798E-12
   1.903336762586028E-12   1.954880476998490E-12   2.007827860465682E-12
   2.062217293801434E-12   2.118088196266267E-12   2.175480998702589E-12
   2.234437280335632E-12   2.294999876983454E-12   2.357212758533523E-12
   2.421121036983760E-12   2.486771053172684E-12   2.554210536304704E-12
   2.623488550594625E-12   2.694655302034151E-12   2.767762460863682E-12
   2.842863323771824E-12   2.920012538993261E-12   2.999266118913869E-12
   3.080681694124618E-12   3.164318532044266E-12   3.250237658002745E-12
   3.338501776349967E-12   3.429175096776068E-12   3.522323572952333E-12
   3.618015091378517E-12   3.716319496439406E-12   3.817308550855001E-12
   3.921055907191076E-12   4.027637311645470E-12   4.137130792601505E-12
   4.249616361507642E-12   4.365176116993187E-12   4.483894439833773E-12
   4.605858146995612E-12   4.731156503271003E-12   4.859881171856519E-12
   4.992126466759939E-12   5.127989381653786E-12   5.267569377889566E-12
   5.410968617057014E-12   5.558292338716861E-12   5.709648574966134E-12
   5.865148324863819E-12   6.024905690261247E-12   6.189037974721649E-12
   6.357665934214815E-12   6.530913476881120E-12   6.708907779913949E-12
   6.891779691781982E-12   7.079663810407125E-12   7.272698578905079E-12
   7.471025962279705E-12   7.674791919068654E-12   7.884146808205471E-12
   8.099244979706664E-12   8.320244905301797E-12   8.547309590539372E-12
   8.780606642430009E-12   9.020308152196819E-12   9.266591093661270E-12
   9.519637794704114E-12   9.779635583973715E-12   1.004677663377114E-11
   1.032125845287573E-11   1.060328394926871E-11   1.089306182823103E-11
   1.119080695764428E-11   1.149674012749462E-11   1.181108814381156E-11
   1.213408417390508E-11   1.246596781881889E-11   1.280698553588843E-11
   1.315739104470857E-11   1.351744477350775E-11   1.388741415613527E-11
   1.426757428651335E-11   1.465820790758585E-11   1.505960579553644E-11
   1.547206715583300E-11   1.589589945053979E-11   1.633141858251838E-11
   1.677894947238601E-11   1.723882617522778E-11   1.771139207066462E-11
   1.819700000622543E-11   1.869601294065355E-11   1.920880410820034E-11
   1.973575722267526E-11   2.027726681448549E-11   2.083373815646094E-11
   2.140558810312404E-11   2.199324538824764E-11   2.259715048515095E-11
   2.321775640132670E-11   2.385552945715037E-11   2.451094898001977E-11
   2.518450759012463E-11   2.587671169881256E-11   2.658808177055939E-11
   2.731915327873446E-11   2.807047682253812E-11   2.884261834669060E-11
   2.963615999522858E-11   3.045170071081104E-11   3.128985580607097E-11
   3.215125795495502E-11   3.303655821968347E-11   3.394642581823909E-11
   3.488154890305772E-11   3.584263526766286E-11   3.683041280496035E-11
   3.784562974476304E-11   3.888905522204927E-11   3.996148049912347E-11
   4.106371972485196E-11   4.219660987964085E-11   4.336101151989774E-11
   4.455780976084141E-11   4.578791488294421E-11   4.705226312672017E-11
   4.835181710188021E-11   4.968756681929640E-11   5.106053059554910E-11
   5.247175560584706E-11   5.392231879032247E-11   5.541332786410117E-11
   5.694592228672008E-11   5.852127361990551E-11   6.014058680944891E-11
   6.180510137859572E-11   6.351609205855848E-11   6.527486998202324E-11
   6.708278369409103E-11   6.894122025437283E-11   7.085160631183899E-11
   7.281540925507728E-11   7.483413840377233E-11   7.690934616060679E-11
   7.904262928482084E-11   8.123563034319168E-11   8.349003896716711E-11
   8.580759302223951E-11   8.819008009204565E-11   9.063933890793174E-11
   9.315726091902719E-11   9.574579199410106E-11   9.840693358907761E-11
   1.011427444807933E-10   1.039553426636702E-10   1.068469069382047E-10
   1.098196786344066E-10   1.128759631555198E-10   1.160181322407748E-10
   1.192486259419743E-10   1.225699544515008E-10   1.259847001359370E-10
   1.294955192988824E-10   1.331051448031761E-10   1.368163883277363E-10
   1.406321423648507E-10   1.445553827590443E-10   1.485891710075619E-10
   1.527366564948543E-10   1.570010794998480E-10   1.613857746401549E-10
   1.658941722414879E-10   1.705298007869463E-10   1.752962909913586E-10
   1.801973791644079E-10   1.852369093408933E-10   1.904188361030726E-10
   1.957472289246720E-10   2.012262747389541E-10   2.068602805067503E-10
   2.126536783244319E-10   2.186110295194512E-10   2.247370268584507E-10
   2.310364978686408E-10   2.375144104345807E-10   2.441758770189513E-10
   2.510261577258368E-10   2.580706653152411E-10   2.653149694559769E-10
   2.727648013652358E-10   2.804260585401703E-10   2.883048096329364E-10
   2.964072994709713E-10   3.047399542268489E-10   3.133093867392090E-10
   3.221224019916025E-10   3.311860027905947E-10   3.405073953660502E-10
   3.500939945632694E-10   3.599534313169099E-10   3.700935611015654E-10
   3.805224659476844E-10   3.912484617770908E-10   4.022801100438440E-10
   4.136262213083121E-10   4.252958623696545E-10   4.372983642910113E-10
   4.496433277326178E-10   4.623406357659158E-10   4.754004608271889E-10
   4.888332678938032E-10   5.026498293476803E-10   5.168612337217359E-10
   5.314788921143665E-10   5.465145494671052E-10   5.619802938494933E-10
   5.778885666853293E-10   5.942521731649216E-10   6.110842929851387E-10
   6.283984914083950E-10   6.462087306459764E-10   6.645293815824862E-10
   6.833752358493776E-10   7.027615182569617E-10   7.227038995969922E-10
   7.432185098262171E-10   7.643219516425259E-10   7.860313144653862E-10
   8.083641888326788E-10   8.313386812263962E-10   8.549734293400428E-10
   8.792876178009754E-10   9.043009943613507E-10   9.300338865713067E-10
   9.565072189476925E-10   9.837425306547164E-10   1.011761993716205E-09
   1.040588431770934E-09   1.070245339476577E-09   1.100756901835652E-09
   1.132148012618965E-09   1.164444298606049E-09   1.197672145706391E-09
   1.231858712486678E-09   1.267031959144896E-09   1.303220675206280E-09
   1.340454492427147E-09   1.378763911712502E-09   1.418180335520951E-09
   1.458736087358252E-09   1.500464444507180E-09   1.543399670723025E-09
   1.587577036727040E-09   1.633032854832629E-09   1.679804508449597E-09
   1.727930484185359E-09   1.777450404628619E-09   1.828405062118709E-09
   1.880836453531787E-09   1.934787816110431E-09   1.990303664359211E-09
   2.047429828046405E-09   2.106213491341097E-09   2.166703233120955E-09
   2.228949068485571E-09   2.293002491511526E-09   2.358916519286446E-09
   2.426745737260424E-09   2.496546345954318E-09   2.568376209065645E-09
   2.642294903013993E-09   2.718363767969155E-09   2.796645960406449E-09
   2.877206507235082E-09   2.960112361546727E-09   3.045432460032947E-09
   3.133237782121535E-09   3.223601410883366E-09   3.316598595762862E-09
   3.412306817186827E-09   3.510805853107993E-09   3.612177847541348E-09
   3.716507381153055E-09   3.823881543963541E-09   3.934390010228231E-09
   4.048125115561249E-09   4.165181936369420E-09   4.285658371665907E-09
   4.409655227334878E-09   4.537276302920779E-09   4.668628481017978E-09
   4.803821819338810E-09   4.942969645540413E-09   5.086188654893147E-09
   5.233599010875870E-09   5.385324448785911E-09   5.541492382454212E-09
   5.702234014158820E-09   5.867684447832719E-09   6.037982805664848E-09
   6.213272348196152E-09   6.393700598015536E-09   6.579419467163739E-09
   6.770585388356390E-09   6.967359450140896E-09   7.169907536105478E-09
   7.378400468259954E-09   7.593014154705909E-09   7.813929741729634E-09
   8.041333770801457E-09   8.275418338233313E-09   8.516381253425259E-09
   8.764426216904927E-09   9.019763020991713E-09   9.282607722960170E-09
   9.553182819784183E-09   9.831717408788558E-09   1.011844739778762E-08
   1.041361575807454E-08   1.071747270716638E-08   1.103027591746358E-08
   1.135229074919728E-08   1.168379047681595E-08   1.202505652655116E-08
   1.237637872041572E-08   1.273805552755292E-08   1.311039432311558E-08
   1.349371165491952E-08   1.388833351808733E-08   1.429459563792912E-08
   1.471284376130531E-08   1.514343395672611E-08   1.558673292344946E-08
   1.604311830984717E-08   1.651297904131705E-08   1.699671565802706E-08
   1.749474066278620E-08   1.800747887934549E-08   1.853536782144158E-08
   1.907885807290493E-08   1.963841367916386E-08   2.021451255048605E-08
   2.080764687730895E-08   2.141832355802124E-08   2.204706463956823E-08
   2.269440777126513E-08   2.336090667221393E-08   2.404713161273103E-08
   2.475366991020520E-08   2.548112643981768E-08   2.623012416056967E-08
   2.700130465707498E-08   2.779532869759004E-08   2.861287680876701E-08
   2.945464986763030E-08   3.032136971129213E-08   3.121377976493762E-08
   3.213264568862610E-08   3.307875604347123E-08   3.405292297777976E-08
   3.505598293374580E-08   3.608879737531514E-08   3.715225353785266E-08
   3.824726520026446E-08   3.937477348024655E-08   4.053574765335055E-08
   4.173118599657871E-08   4.296211665724103E-08   4.422959854782947E-08
   4.553472226768643E-08   4.687861105226764E-08   4.826242175082406E-08
   4.968734583335135E-08   5.115461042768077E-08   5.266547938761139E-08
   5.422125439301042E-08   5.582327608283591E-08   5.747292522206414E-08
   5.917162390353356E-08   6.092083678574706E-08   6.272207236770533E-08
   6.457688430187577E-08   6.648687274643420E-08   6.845368575795078E-08
   7.047902072572545E-08   7.256462584901497E-08   7.471230165842970E-08
   7.692390258281618E-08   7.920133856298137E-08   8.154657671365347E-08
   8.396164303511651E-08   8.644862417599772E-08   8.900966924873089E-08
   9.164699169926440E-08   9.436287123262784E-08   9.715965579602016E-08
   1.000397636211307E-07   1.030056853274553E-07   1.060599860884224E-07
   1.092053078621956E-07   1.124443716890773E-07   1.157799800574929E-07
   1.192150193405931E-07   1.227524623055745E-07   1.263953706978769E-07
   1.301468979024841E-07   1.340102916846156E-07   1.379888970121687E-07
   1.420861589623358E-07   1.463056257148972E-07   1.506509516347611E-07
   1.551259004463969E-07   1.597343485028905E-07   1.644802881524242E-07
   1.693678312050731E-07   1.744012125028891E-07   1.795847935963350E-07
   1.849230665302182E-07   1.904206577423692E-07   1.960823320784034E-07
   2.019129969260015E-07   2.079177064722487E-07   2.141016660876736E-07
   2.204702368407337E-07   2.270289401466089E-07   2.337834625542718E-07
   2.407396606759249E-07   2.479035662630109E-07   2.552813914331282E-07
   2.628795340523088E-07   2.707045832772465E-07   2.787633252621992E-07
   2.870627490354239E-07   2.956100525501484E-07   3.044126489152283E-07
   3.134781728107881E-07   3.228144870943000E-07   3.324296896027144E-07
   3.423321201564177E-07   3.525303677709635E-07   3.630332780826955E-07
   3.738499609945578E-07   3.849897985485746E-07   3.964624530316670E-07
   4.082778753216687E-07   4.204463134806046E-07   4.329783216024995E-07
   4.458847689231950E-07   4.591768491998719E-07   4.728660903681958E-07
   4.869643644852369E-07   5.014838979665483E-07   5.164372821260331E-07
   5.318374840274758E-07   5.476978576568779E-07   5.640321554249943E-07
   5.808545400097453E-07   5.981795965484538E-07   6.160223451901490E-07
   6.343982540184709E-07   6.533232523560146E-07   6.728137444612682E-07
   6.928866236296155E-07   7.135592867102094E-07   7.348496490508619E-07
   7.567761598834423E-07   7.793578181626371E-07   8.026141888712986E-07
   8.265654198059813E-07   8.512322588566625E-07   8.766360717950427E-07
   9.027988605862343E-07   9.297432822390726E-07   9.574926682107173E-07
   9.860710443816673E-07   1.015503151617765E-06   1.045814466936243E-06
   1.077031225293368E-06   1.109180442011697E-06   1.142289935865542E-06
   1.176388352843691E-06   1.211505190609050E-06   1.247670823675377E-06
   1.284916529321873E-06   1.323274514267004E-06   1.362777942123500E-06
   1.403460961657120E-06   1.445358735872426E-06   1.488507471949436E-06
   1.532944452055733E-06   1.578708065059284E-06   1.625837839167947E-06
   1.674374475522381E-06   1.724359882769814E-06   1.775837212646918E-06
   1.828850896600830E-06   1.883446683478164E-06   1.939671678312732E-06
   1.997574382243512E-06   2.057204733595330E-06   2.118614150155617E-06
   2.181855572681518E-06   2.246983509672653E-06   2.314054083445734E-06
   2.383125077548339E-06   2.454255985550130E-06   2.527508061250895E-06
   2.602944370345904E-06   2.680629843590168E-06   2.760631331504384E-06
   2.843017660666516E-06   2.927859691634205E-06   3.015230378544427E-06
   3.105204830438147E-06   3.197860374359013E-06   3.293276620276501E-06
   3.391535527885323E-06   3.492721475334338E-06   3.596921329939678E-06
   3.704224520938317E-06   3.814723114339852E-06   3.928511889935863E-06
   4.045688420527856E-06   4.166353153436464E-06   4.290609494356292E-06
   4.418563893622598E-06   4.550325934957743E-06   4.686008426767301E-06
   4.825727496057529E-06   4.969602685047921E-06   5.117757050554565E-06
   5.270317266222077E-06   5.427413727684001E-06   5.589180660733735E-06
   5.755756232590298E-06   5.927282666345478E-06   6.103906358681321E-06
   6.285778000949244E-06   6.473052703704597E-06   6.665890124792967E-06
   6.864454601087151E-06   7.068915283976365E-06   7.279446278711983E-06
   7.496226787716918E-06   7.719441257968590E-06   7.949279532568411E-06
   8.185937006613683E-06   8.429614787490930E-06   8.680519859712866E-06
   8.938865254424394E-06   9.204870223706408E-06   9.478760419809582E-06
   9.760768079453805E-06   1.005113221333252E-05   1.035009880096485E-05
   1.065792099104235E-05   1.097485930742070E-05   1.130118186091108E-05
   1.163716456702960E-05   1.198309136986761E-05   1.233925447224976E-05
   1.270595457235114E-05   1.308350110694926E-05   1.347221250149124E-05
   1.387241642716112E-05   1.428445006513718E-05   1.470866037823394E-05
   1.514540439012849E-05   1.559504947237618E-05   1.605797363942559E-05
   1.653456585184843E-05   1.702522632800545E-05   1.753036686437478E-05
   1.805041116477546E-05   1.858579517872438E-05   1.913696744917096E-05
   1.970438946986041E-05   2.028853605258223E-05   2.088989570456763E-05
   2.150897101630577E-05   2.214627906005568E-05   2.280235179933760E-05
   2.347773650969476E-05   2.417299621102342E-05   2.488871011177703E-05
   2.562547406535731E-05   2.638390103901337E-05   2.716462159557754E-05
   2.796828438837471E-05   2.879555666965059E-05   2.964712481287221E-05
   3.052369484926326E-05   3.142599301894503E-05   3.235476633706341E-05
   3.331078317529098E-05   3.429483385910319E-05   3.530773128123693E-05
   3.635031153174963E-05   3.742343454510711E-05   3.852798476473880E-05
   3.966487182550901E-05   4.083503125456401E-05   4.203942519102522E-05
   4.327904312501029E-05   4.455490265647475E-05   4.586805027437893E-05
   4.721956215669618E-05   4.861054499179100E-05   5.004213682170730E-05
   5.151550790792030E-05   5.303186162011755E-05   5.459243534858821E-05
   5.619850144081256E-05   5.785136816285749E-05   5.955238068619728E-05
   6.130292210059327E-05   6.310441445368002E-05   6.495831981792025E-05
   6.686614138560587E-05   6.882942459259715E-05   7.084975827150769E-05
   7.292877583505843E-05   7.506815649033991E-05   7.726962648473806E-05
   7.953496038429556E-05   8.186598238529708E-05   8.426456765988457E-05
   8.673264373652507E-05   8.927219191617228E-05   9.188524872497994E-05
   9.457390740444424E-05   9.734031943987037E-05   1.001866961280776E-04
   1.031153101852751E-04   1.061284973960632E-04   1.092286583045301E-04
   1.124182599484370E-04   1.156998376375061E-04   1.190759967768410E-04
   1.225494147365368E-04   1.261228427685538E-04   1.297991079719501E-04
   1.335811153075947E-04   1.374718496634974E-04   1.414743779719224E-04
   1.455918513794670E-04   1.498275074713169E-04   1.541846725509074E-04
   1.586667639762455E-04   1.632772925541731E-04   1.680198649938714E-04
   1.728981864209350E-04   1.779160629533659E-04   1.830774043408645E-04
   1.883862266688174E-04   1.938466551284085E-04   1.994629268543061E-04
   2.052393938314014E-04   2.111805258721042E-04   2.172909136657221E-04
   2.235752719014821E-04   2.300384424667744E-04   2.366853977222279E-04
   2.435212438552537E-04   2.505512243137190E-04   2.577807233214395E-04
   2.652152694772112E-04   2.728605394391216E-04   2.807223616959149E-04
   2.888067204272110E-04   2.971197594544023E-04   3.056677862840878E-04
   3.144572762459215E-04   3.234948767267900E-04   3.327874115032547E-04
   3.423418851742244E-04   3.521654876958515E-04   3.622655990206742E-04
   3.726497938430497E-04   3.833258464529572E-04   3.943017357002713E-04
   4.055856500716374E-04   4.171859928821035E-04   4.291113875836937E-04
   4.413706831931328E-04   4.539729598409558E-04   4.669275344442664E-04
   4.802439665054293E-04   4.939320640390094E-04   5.080018896292935E-04
   5.224637666207558E-04   5.373282854438509E-04   5.526063100785415E-04
   5.683089846579926E-04   5.844477402148808E-04   6.010343015727938E-04
   6.180806943852148E-04   6.355992523246020E-04   6.536026244241001E-04
   6.721037825744300E-04   6.911160291785285E-04   7.106530049665210E-04
   7.307286969736266E-04   7.513574466836109E-04   7.725539583404146E-04
   7.943333074305940E-04   8.167109493392316E-04   8.397027281819679E-04
   8.633248858158314E-04   8.875940710315375E-04   9.125273489299405E-04
   9.381422104853232E-04   9.644565822982124E-04   9.914888365404114E-04
   1.019257801094935E-03   1.047782769893533E-03   1.077083513454493E-03
   1.107180289623382E-03   1.138093854519412E-03   1.169845473690071E-03
   1.202456933476685E-03   1.235950552593523E-03   1.270349193923070E-03
   1.305676276530068E-03   1.341955787896894E-03   1.379212296382826E-03
   1.417470963909735E-03   1.456757558876689E-03   1.497098469305941E-03
   1.538520716222738E-03   1.581051967271340E-03   1.624720550569616E-03
   1.669555468804526E-03   1.715586413570765E-03   1.762843779954782E-03
   1.811358681366366E-03   1.861162964619884E-03   1.912289225267266E-03
   1.964770823184705E-03   2.018641898415025E-03   2.073937387267579E-03
   2.130693038677458E-03   2.188945430825754E-03   2.248731988022505E-03
   2.310090997853868E-03   2.373061628595026E-03   2.437683946890172E-03
   2.503998935700889E-03   2.572048512524094E-03   2.641875547880652E-03
   2.713523884075624E-03   2.787038354231032E-03   2.862464801591884E-03
   2.939850099106116E-03   3.019242169278934E-03   3.100690004301967E-03
   3.184243686457471E-03   3.269954408797694E-03   3.357874496099382E-03
   3.448057426093263E-03   3.540557850968149E-03   3.635431619149231E-03
   3.732735797349884E-03   3.832528692896193E-03   3.934869876323252E-03
   4.039820204242059E-03   4.147441842475727E-03   4.257798289463484E-03
   4.370954399930808E-03   4.486976408823833E-03   4.605931955505963E-03
   4.727890108214476E-03   4.852921388774691E-03   4.981097797569075E-03
   5.112492838758508E-03   5.247181545752706E-03   5.385240506926647E-03
   5.526747891579661E-03   5.671783476133667E-03   5.820428670566900E-03
   5.972766545079304E-03   6.128881856985661E-03   6.288861077832365E-03
   6.452792420733710E-03   6.620765867923451E-03   6.792873198517356E-03
   6.969208016482484E-03   7.149865778808907E-03   7.334943823879700E-03
   7.524541400035112E-03   7.718759694327010E-03   7.917701861459892E-03
   8.121473052915084E-03   8.330180446255052E-03   8.543933274605215E-03
   8.762842856311142E-03   8.987022624769593E-03   9.216588158432537E-03
   9.451657210984048E-03   9.692349741690774E-03   9.938787945927618E-03
   1.019109628588124E-02   1.044940152143498E-02   1.071383274123990E-02
   1.098452139397772E-02   1.126160131982241E-02   1.154520878210824E-02
   1.183548249921281E-02   1.213256367666447E-02   1.243659603948351E-02
   1.274772586476705E-02   1.306610201452652E-02   1.339187596878595E-02
   1.372520185894727E-02   1.406623650142620E-02   1.441513943155837E-02
   1.477207293777040E-02   1.513720209600430E-02   1.551069480437540E-02
   1.589272181803443E-02   1.628345678419279E-02   1.668307627725659E-02
   1.709175983399981E-02   1.750968998868966E-02   1.793705230805847E-02
   1.837403542599622E-02   1.882083107781669E-02   1.927763413392856E-02
   1.974464263272168E-02   2.022205781245824E-02   2.071008414194089E-02
   2.120892934971434E-02   2.171880445154662E-02   2.223992377593053E-02
   2.277250498734665E-02   2.331676910703798E-02   2.387294053106254E-02
   2.444124704541573E-02   2.502191983804872E-02   2.561519350765264E-02
   2.622130606913086E-02   2.684049895574161E-02   2.747301701796142E-02
   2.811910851919226E-02   2.877902512851320E-02   2.945302191075636E-02
   3.014135731426609E-02   3.084429315677676E-02   3.156209460991495E-02
   3.229503018289358E-02   3.304337170601478E-02   3.380739431463196E-02
   3.458737643423555E-02   3.538359976731834E-02   3.619634928264381E-02
   3.702591320748028E-02   3.787258302327894E-02   3.873665346516311E-02
   3.961842252546593E-02   4.051819146140835E-02   4.143626480685751E-02
   4.237295038795437E-02   4.332855934225995E-02   4.430340614094813E-02
   4.529780861347874E-02   4.631208797412168E-02   4.734656884967412E-02
   4.840157930771868E-02   4.947745088480739E-02   5.057451861402069E-02
   5.169312105143447E-02   5.283360030112660E-02   5.399630203845733E-02
   5.518157553146134E-02   5.638977366028551E-02   5.762125293469267E-02
   5.887637350972291E-02   6.015549919966175E-02   6.145899749050452E-02
   6.278723955113254E-02   6.414060024342866E-02   6.551945813155939E-02
   6.692419549064051E-02   6.835519831498499E-02   6.981285632610808E-02
   7.129756298063565E-02   7.280971547823198E-02   7.434971476963136E-02
   7.591796556482643E-02   7.751487634143663E-02   7.914085935325117E-02
   8.079633063891557E-02   8.248171003070723E-02   8.419742116332522E-02
   8.594389148260163E-02   8.772155225402738E-02   8.953083857097287E-02
   9.137218936247442E-02   9.324604740044957E-02   9.515285930619949E-02
   9.709307555605215E-02   9.906715048599819E-02   1.010755422951699E-01
   1.031187130480144E-01   1.051971286750111E-01   1.073112589717883E-01
   1.094615775964909E-01   1.116485620652592E-01   1.138726937456762E-01
   1.161344578480488E-01   1.184343434143874E-01   1.207728433049551E-01
   1.231504541822615E-01   1.255676764923786E-01   1.280250144434626E-01
   1.305229759813727E-01   1.330620727622782E-01   1.356428201221589E-01
   1.382657370431054E-01   1.409313461163359E-01   1.436401735018562E-01
   1.463927488846958E-01   1.491896054276682E-01   1.520312797206105E-01
   1.549183117260739E-01   1.578512447214472E-01   1.608306252375147E-01
   1.638570029934600E-01   1.669309308283506E-01   1.700529646291529E-01
   1.732236632553470E-01   1.764435884602328E-01   1.797133048090394E-01
   1.830333795939728E-01   1.864043827463600E-01   1.898268867460710E-01
   1.933014665284267E-01   1.968286993888227E-01   2.004091648853269E-01
   2.040434447395295E-01   2.077321227359518E-01   2.114757846203412E-01
   2.152750179972010E-01   2.191304122269240E-01   2.230425583229171E-01
   2.270120488491152E-01   2.310394778182959E-01   2.351254405916122E-01
   2.392705337797576E-01   2.434753551461772E-01   2.477405035127208E-01
   2.520665786681158E-01   2.564541812796062E-01   2.609039128080621E-01
   2.654163754268126E-01   2.699921719443907E-01   2.746319057312953E-01
   2.793361806507856E-01   2.841056009936114E-01   2.889407714164512E-01
   2.938422968836930E-01   2.988107826120186E-01   3.038468340170818E-01
   3.089510566613609E-01   3.141240562020552E-01   3.193664383376605E-01
   3.246788087516103E-01   3.300617730511125E-01   3.355159366990528E-01
   3.410419049365647E-01   3.466402826935919E-01   3.523116744845317E-01
   3.580566842858314E-01   3.638759153921817E-01   3.697699702478022E-01
   3.757394502492106E-01   3.817849555158303E-01   3.879070846248426E-01
   3.941064343068254E-01   4.003835990989889E-01   4.067391709532090E-01
   4.131737387966120E-01   4.196878880431698E-01   4.262822000556722E-01
   4.329572515585387E-01   4.397136140032589E-01   4.465518528898040E-01
   4.534725270491600E-01   4.604761878942092E-01   4.675633786485427E-01
   4.747346335654480E-01   4.819904771522975E-01   4.893314234188852E-01
   4.967579751719509E-01   5.042706233822095E-01   5.118698466546935E-01
   5.195561108381274E-01   5.273298688143916E-01   5.351915605148443E-01
   5.431416132162904E-01   5.511804421755374E-01   5.593084516674756E-01
   5.675260364970232E-01   5.758335840594033E-01   5.842314770250920E-01
   5.927200967240595E-01   6.012998272968260E-01   6.099710606650950E-01
   6.187342023495459E-01   6.275896781235881E-01   6.365379414361312E-01
   6.455794814605483E-01   6.547148315286936E-01   6.639445775875533E-01
   6.732693661743353E-01   6.826899112504083E-01   6.922069990781912E-01
   7.018214901874151E-01   7.115343173847066E-01   7.213464787453051E-01
   7.312590246221137E-01   7.412730379452729E-01   7.513896074827588E-01
   7.616097942851382E-01   7.719345922117751E-01   7.823648841641824E-01
   7.929013963374584E-01   8.035446533281764E-01   8.142949371956619E-01
   8.251522534816570E-01   8.361163067224243E-01   8.471864871763507E-01
   8.583618694446197E-01   8.696412225364427E-01   8.810230298943452E-01
   8.925055170995564E-01   9.040866845214151E-01   9.157643420877288E-01
   9.275361435972804E-01   9.393996184828940E-01   9.513521995515078E-01
   9.633912458673276E-01   9.755140605191063E-01   9.877179034692747E-01
   1.000000000000000E+00   1.012357545454339E+00   1.024787707041034E+00
   1.037287623457790E+00   1.049854403019181E+00   1.062485120876868E+00
   1.075176815810334E+00   1.087926486959000E+00   1.100731090769176E+00
   1.113587538345515E+00   1.126492693327665E+00   1.139443370357955E+00
   1.152436334163786E+00   1.165468299247106E+00   1.178535930151033E+00
   1.191635842258678E+00   1.204764603070017E+00   1.217918733897983E+00
   1.231094711923738E+00   1.244288972552551E+00   1.257497912015010E+00
   1.270717890162983E+00   1.283945233415262E+00   1.297176237813848E+00
   1.310407172157968E+00   1.323634281189049E+00   1.336853788805718E+00
   1.350061901293338E+00   1.363254810557563E+00   1.376428697355858E+00
   1.389579734524704E+00   1.402704090203563E+00   1.415797931059252E+00
   1.428857425516553E+00   1.441878747002383E+00   1.454858077211922E+00
   1.467791609405633E+00   1.480675551746188E+00   1.493506130683979E+00
   1.506279594399129E+00   1.518992216306750E+00   1.531640298630710E+00
   1.544220176049247E+00   1.556728219413576E+00   1.569160839538056E+00
   1.581514491057631E+00   1.593785676345065E+00   1.605970949477059E+00
   1.618066920234604E+00   1.630070258119035E+00   1.641977696361096E+00
   1.653786035896139E+00   1.665492149274244E+00   1.677092984469794E+00
   1.688585568550806E+00   1.699967011164353E+00   1.711234507790708E+00
   1.722385342715529E+00   1.733416891666697E+00   1.744326624060415E+00
   1.755112104799822E+00   1.765770995568729E+00   1.776301055564179E+00
   1.786700141613439E+00   1.796966207623430E+00   1.807097303315109E+00
   1.817091572200920E+00   1.826947248770065E+00   1.836662654854367E+00
   1.846236195156613E+00   1.855666351933415E+00   1.864951678835650E+00
   1.874090793921240E+00   1.883082371867264E+00   1.891925135420819E+00
   1.900617846140574E+00   1.909159294493168E+00   1.917548289380404E+00
   1.925783647184208E+00   1.933864180426421E+00   1.941788686149599E+00
   1.949555934132410E+00   1.957164655059288E+00   1.964613528768715E+00
   1.971901172707138E+00   1.979026130716586E+00   1.985986862283231E+00
   1.992781732371586E+00   1.999409001964605E+00   2.005866819423939E+00
   2.012153212776798E+00   2.018266083026640E+00   2.024203198574165E+00
   2.029962190823089E+00   2.035540551032000E+00   2.040935628459416E+00
   2.046144629834182E+00   2.051164620167691E+00   2.055992524908362E+00
   2.060625133422443E+00   2.065059103768942E+00   2.069290968720316E+00
   2.073317142964924E+00   2.077133931412263E+00   2.080737538508015E+00
   2.084124078453113E+00   2.087289586209666E+00   2.090230029166951E+00
   2.092941319332927E+00   2.095419325911156E+00   2.097659888119785E+00
   2.099658828108514E+00   2.101411963831426E+00   2.102915121738249E+00
   2.104164149154126E+00   2.105154926228358E+00   2.105883377345718E+00
   2.106345481909858E+00   2.106537284426756E+00   2.106454903837029E+00
   2.106094542068805E+00   2.105452491807528E+00   2.104525143504941E+00
   2.103308991676147E+00   2.101800640560274E+00   2.099996809246189E+00
   2.097894336388841E+00   2.095490184663208E+00   2.092781445120001E+00
   2.089765341619105E+00   2.086439235521408E+00   2.082800630815862E+00
   2.078847179844637E+00   2.074576689763818E+00   2.069987129839225E+00
   2.065076639626179E+00   2.059843538018803E+00   2.054286333080130E+00
   2.048403732481613E+00   2.042194654293715E+00   2.035658237783587E+00
   2.028793853798263E+00   2.021601114250036E+00   2.014079880182646E+00
   2.006230267890346E+00   1.998052652592647E+00   1.989547669239529E+00
   1.980716210135261E+00   1.971559419220200E+00   1.962078683031172E+00
   1.952275618560431E+00   1.942152058435827E+00   1.931710034033875E+00
   1.920951757295895E+00   1.909879602129990E+00   1.898496086336609E+00
   1.886803854985708E+00   1.874805666097836E+00   1.862504379345224E+00
   1.849902948302745E+00   1.837004416556815E+00   1.823811917741974E+00
   1.810328679338777E+00   1.796558029850737E+00   1.782503408798242E+00
   1.768168378834953E+00   1.753556639213882E+00   1.738672039807713E+00
   1.723518594917640E+00   1.708100496179996E+00   1.692422123989963E+00
   1.676488056995151E+00   1.660303079356725E+00   1.643872185620892E+00
   1.627200583179264E+00   1.610293692415684E+00   1.593157144734395E+00
   1.575796778737646E+00   1.558218634869410E+00   1.540428948867270E+00
   1.522434144369388E+00   1.504240825011092E+00   1.485855766319881E+00
   1.467285907682284E+00   1.448538344615408E+00   1.429620321531423E+00
   1.410539225135792E+00   1.391302578558949E+00   1.371918036282468E+00
   1.352393379880194E+00   1.332736514563053E+00   1.312955466489307E+00
   1.293058380777107E+00   1.273053520136985E+00   1.252949264025983E+00
   1.232754108212868E+00   1.212476664634618E+00   1.192125661417931E+00
   1.171709942935493E+00   1.151238469764854E+00   1.130720318417907E+00
   1.110164680710797E+00   1.089580862647646E+00   1.068978282696561E+00
   1.048366469342950E+00   1.027755057813211E+00   1.007153785871187E+00
   9.865724886005048E-01   9.660210920978168E-01   9.455096060150191E-01
   9.250481149025924E-01   9.046467683211362E-01   8.843157697037831E-01
   8.640653639682698E-01   8.439058238937944E-01   8.238474352941567E-01
   8.039004810348036E-01   7.840752239570526E-01   7.643818887876676E-01
   7.448306431259010E-01   7.254315776128663E-01   7.061946853994712E-01
   6.871298410389762E-01   6.682467789384092E-01   6.495550715094668E-01
   6.310641071641376E-01   6.127830683030412E-01   5.947209094454354E-01
   5.768863356490344E-01   5.592877813652906E-01   5.419333898717213E-01
   0.000000000000000E+00   0.000000000000000E+00   0.000000000000000E+00
   0.000000000000000E+00   0.000000000000000E+00   0.000000000000000E+00
   0.000000000000000E+00   0.000000000000000E+00   0.000000000000000E+00
   0.000000000000000E+00   0.000000000000000E+00   0.000000000000000E+00
   0.000000000000000E+00   0.000000000000000E+00   0.000000000000000E+00
   0.000000000000000E+00   0.000000000000000E+00   0.000000000000000E+00
   0.000000000000000E+00   0.000000000000000E+00   0.000000000000000E+00
   0.000000000000000E+00   0.000000000000000E+00   0.000000000000000E+00
   0.000000000000000E+00   0.000000000000000E+00   0.000000000000000E+00
   0.000000000000000E+00   0.000000000000000E+00   0.000000000000000E+00
   0.000000000000000E+00   0.000000000000000E+00   0.000000000000000E+00
   0.000000000000000E+00   0.000000000000000E+00   0.000000000000000E+00
   0.000000000000000E+00   0.000000000000000E+00   0.000000000000000E+00
   0.000000000000000E+00   0.000000000000000E+00   0.000000000000000E+00
   0.000000000000000E+00   0.000000000000000E+00   0.000000000000000E+00
   0.000000000000000E+00   0.000000000000000E+00   0.000000000000000E+00
   0.000000000000000E+00   0.000000000000000E+00   0.000000000000000E+00
   0.000000000000000E+00   0.000000000000000E+00   0.000000000000000E+00
   0.000000000000000E+00   0.000000000000000E+00   0.000000000000000E+00
   0.000000000000000E+00   0.000000000000000E+00   0.000000000000000E+00
   0.000000000000000E+00   0.000000000000000E+00   0.000000000000000E+00
   0.000000000000000E+00   0.000000000000000E+00   0.000000000000000E+00
   0.000000000000000E+00   0.000000000000000E+00   0.000000000000000E+00
   0.000000000000000E+00   0.000000000000000E+00   0.000000000000000E+00
   0.000000000000000E+00   0.000000000000000E+00   0.000000000000000E+00
   0.000000000000000E+00   0.000000000000000E+00   0.000000000000000E+00
   0.000000000000000E+00   0.000000000000000E+00   0.000000000000000E+00
   0.000000000000000E+00   0.000000000000000E+00   0.000000000000000E+00
   0.000000000000000E+00   0.000000000000000E+00   0.000000000000000E+00
   0.000000000000000E+00   0.000000000000000E+00   0.000000000000000E+00
   0.000000000000000E+00   0.000000000000000E+00   0.000000000000000E+00
   0.000000000000000E+00   0.000000000000000E+00   0.000000000000000E+00
   0.000000000000000E+00   0.000000000000000E+00   0.000000000000000E+00
   0.000000000000000E+00   0.000000000000000E+00   0.000000000000000E+00
   0.000000000000000E+00   0.000000000000000E+00   0.000000000000000E+00
   0.000000000000000E+00   0.000000000000000E+00   0.000000000000000E+00
   0.000000000000000E+00   0.000000000000000E+00   0.000000000000000E+00
   0.000000000000000E+00   0.000000000000000E+00   0.000000000000000E+00
   0.000000000000000E+00   0.000000000000000E+00   0.000000000000000E+00
   0.000000000000000E+00   0.000000000000000E+00   0.000000000000000E+00
   0.000000000000000E+00   0.000000000000000E+00   0.000000000000000E+00
   0.000000000000000E+00   0.000000000000000E+00   0.000000000000000E+00
   0.000000000000000E+00   0.000000000000000E+00   0.000000000000000E+00
   0.000000000000000E+00   0.000000000000000E+00   0.000000000000000E+00
   0.000000000000000E+00   0.000000000000000E+00   0.000000000000000E+00
   0.000000000000000E+00   0.000000000000000E+00   0.000000000000000E+00
   0.000000000000000E+00   0.000000000000000E+00   0.000000000000000E+00
   0.000000000000000E+00   0.000000000000000E+00   0.000000000000000E+00
   0.000000000000000E+00   0.000000000000000E+00   0.000000000000000E+00
   0.000000000000000E+00   0.000000000000000E+00   0.000000000000000E+00
   0.000000000000000E+00   0.000000000000000E+00   0.000000000000000E+00
   0.000000000000000E+00   0.000000000000000E+00   0.000000000000000E+00
   0.000000000000000E+00   0.000000000000000E+00   0.000000000000000E+00
   0.000000000000000E+00   0.000000000000000E+00   0.000000000000000E+00
   0.000000000000000E+00   0.000000000000000E+00   0.000000000000000E+00
   0.000000000000000E+00   0.000000000000000E+00   0.000000000000000E+00
   0.000000000000000E+00   0.000000000000000E+00   0.000000000000000E+00
   0.000000000000000E+00   0.000000000000000E+00   0.000000000000000E+00
   0.000000000000000E+00   0.000000000000000E+00   0.000000000000000E+00
   0.000000000000000E+00   0.000000000000000E+00   0.000000000000000E+00
   0.000000000000000E+00   0.000000000000000E+00   0.000000000000000E+00
   0.000000000000000E+00   0.000000000000000E+00   0.000000000000000E+00
   0.000000000000000E+00   0.000000000000000E+00   0.000000000000000E+00
   0.000000000000000E+00
        </PP_GIPAW_WFS_AE>
        <PP_GIPAW_WFS_PS size="1525">
   1.668477585497237E-14   1.719291398276944E-14   1.771652700153565E-14
   1.825608619619789E-14   1.881207720436001E-14   1.938500045340862E-14
   1.997537161093070E-14   2.058372204884845E-14   2.121059932168899E-14
   2.185656765941980E-14   2.252220847529283E-14   2.320812088915510E-14
   2.391492226669614E-14   2.464324877511815E-14   2.539375595572872E-14
   2.616711931397156E-14   2.696403492742623E-14   2.778522007232441E-14
   2.863141386914630E-14   2.950337794787819E-14   3.040189713353025E-14
   3.132778015253153E-14   3.228186036063759E-14   3.326499649300649E-14
   3.427807343711770E-14   3.532200302923004E-14   3.639772487509537E-14
   3.750620719566659E-14   3.864844769856127E-14   3.982547447606543E-14
   4.103834693048545E-14   4.228815672768107E-14   4.357602877963807E-14
   4.490312225696427E-14   4.627063163222101E-14   4.767978775502854E-14
   4.913185895991329E-14   5.062815220789418E-14   5.217001426283530E-14
   5.375883290362388E-14   5.539603817326463E-14   5.708310366601422E-14
   5.882154785371550E-14   6.061293545252417E-14   6.245887883125855E-14
   6.436103946264000E-14   6.632112941873001E-14   6.834091291191054E-14
   7.042220788279348E-14   7.256688763648983E-14   7.477688252871035E-14
   7.705418170321564E-14   7.940083488217931E-14   8.181895421107641E-14
   8.431071615975589E-14   8.687836348141073E-14   8.952420723120662E-14
   9.225062884638714E-14   9.506008228972805E-14   9.795509625826885E-14
   1.009382764593106E-13   1.040123079557283E-13   1.071799575827079E-13
   1.104440764380848E-13   1.138076024485243E-13   1.172735630138532E-13
   1.208450777319237E-13   1.245253612064625E-13   1.283177259404300E-13
   1.322255853174968E-13   1.362524566743187E-13   1.404019644663773E-13
   1.446778435302342E-13   1.490839424451357E-13   1.536242269969938E-13
   1.583027837478606E-13   1.631238237141102E-13   1.680916861566373E-13
   1.732108424864845E-13   1.784859002894138E-13   1.839216074730447E-13
   1.895228565402914E-13   1.952946889929451E-13   2.012422998693659E-13
   2.073710424203678E-13   2.136864329275055E-13   2.201941556680996E-13
   2.269000680314699E-13   2.338102057909816E-13   2.409307885366472E-13
   2.482682252731778E-13   2.558291201885195E-13   2.636202785980682E-13
   2.716487130699126E-13   2.799216497366190E-13   2.884465347992368E-13
   2.972310412293833E-13   3.062830756754346E-13   3.156107855790441E-13
   3.252225665083873E-13   3.351270697147420E-13   3.453332099191958E-13
   3.558501733364989E-13   3.666874259432763E-13   3.778547219980439E-13
   3.893621128207017E-13   4.012199558393979E-13   4.134389239129137E-13
   4.260300149369562E-13   4.390045617430069E-13   4.523742422986348E-13
   4.661510902184546E-13   4.803475055951913E-13   4.949762661606013E-13
   5.100505387862915E-13   5.255838913347937E-13   5.415903048715550E-13
   5.580841862488415E-13   5.750803810728757E-13   5.925941870658847E-13
   6.106413678350813E-13   6.292381670609750E-13   6.484013231177793E-13
   6.681480841390795E-13   6.884962235423130E-13   7.094640560260484E-13
   7.310704540544463E-13   7.533348648437523E-13   7.762773278661025E-13
   7.999184928864001E-13   8.242796385484984E-13   8.493826915274145E-13
   8.752502462648154E-13   9.019055853055411E-13   9.293727002534637E-13
   9.576763133655507E-13   9.868418998035654E-13   1.016895710563426E-12
   1.047864796102877E-12   1.079777030688725E-12   1.112661137485556E-12
   1.146546714408527E-12   1.181464260763480E-12   1.217445204698377E-12
   1.254521931490752E-12   1.292727812696648E-12   1.332097236187264E-12
   1.372665637100361E-12   1.414469529734278E-12   1.457546540413253E-12
   1.501935441353668E-12   1.547676185561644E-12   1.594809942793450E-12
   1.643379136611058E-12   1.693427482566207E-12   1.745000027547350E-12
   1.798143190324890E-12   1.852904803331207E-12   1.909334155713067E-12
   1.967482037695181E-12   2.027400786294831E-12   2.089144332428719E-12
   2.152768249454416E-12   2.218329803190146E-12   2.285888003457876E-12
   2.355503657196130E-12   2.427239423190343E-12   2.501159868469985E-12
   2.577331526423241E-12   2.655822956681550E-12   2.736704806827889E-12
   2.820049875984365E-12   2.905933180336335E-12   2.994432020652017E-12
   3.085626051858402E-12   3.179597354736060E-12   3.276430509797367E-12
   3.376212673414669E-12   3.479033656266894E-12   3.584986004175203E-12
   3.694165081400494E-12   3.806669156477636E-12   3.922599490663782E-12
   4.042060429080333E-12   4.165159494630560E-12   4.292007484777475E-12
   4.422718571269011E-12   4.557410402900285E-12   4.696204211405442E-12
   4.839224920574390E-12   4.986601258692608E-12   5.138465874405294E-12
   5.294955456110066E-12   5.456210854985749E-12   5.622377211767900E-12
   5.793604087385265E-12   5.970045597574651E-12   6.151860551595517E-12
   6.339212595168984E-12   6.532270357769985E-12   6.731207604405184E-12
   6.936203392013150E-12   7.147442230627670E-12   7.365114249449211E-12
   7.589415367973969E-12   7.820547472334668E-12   8.058718597011604E-12
   8.304143112077716E-12   8.557041916146057E-12   8.817642635193450E-12
   9.086179827439147E-12   9.362895194463053E-12   9.648037798753374E-12
   9.941864287879610E-12   1.024463912549270E-11   1.055663482936004E-11
   1.087813221664983E-11   1.120942065668541E-11   1.155079833139711E-11
   1.190257250370609E-11   1.226505979408157E-11   1.263858646552057E-11
   1.302348871720658E-11   1.342011298711135E-11   1.382881626381247E-11
   1.424996640780698E-11   1.468394248261064E-11   1.513113509594051E-11
   1.559194675128819E-11   1.606679221020001E-11   1.655609886559030E-11
   1.706030712642365E-11   1.757987081411268E-11   1.811525757098776E-11
   1.866694928120652E-11   1.923544250448193E-11   1.982124892301947E-11
   2.042489580206543E-11   2.104692646448098E-11   2.168790077976936E-11
   2.234839566799589E-11   2.302900561905489E-11   2.373034322775034E-11
   2.445303974517244E-11   2.519774564686587E-11   2.596513121830149E-11
   2.675588715817817E-11   2.757072520009796E-11   2.841037875317420E-11
   2.927560356214869E-11   3.016717838761281E-11   3.108590570694417E-11
   3.203261243659009E-11   3.300815067634786E-11   3.401339847631151E-11
   3.504926062717598E-11   3.611666947460909E-11   3.721658575842539E-11
   3.834999947731605E-11   3.951793077991427E-11   4.072143088299704E-11
   4.196158301765087E-11   4.323950340425216E-11   4.455634225714026E-11
   4.591328481988732E-11   4.731155243209685E-11   4.875240362869093E-11
   5.023713527267600E-11   5.176708372240615E-11   5.334362603439493E-11
   5.496818120275837E-11   5.664221143640432E-11   5.836722347511853E-11
   6.014476994573055E-11   6.197645075958219E-11   6.386391455255393E-11
   6.580886016894777E-11   6.781303819056010E-11   6.987825251232229E-11
   7.200636196592643E-11   7.419928199289792E-11   7.645898636862020E-11
   7.878750897886469E-11   8.118694565042302E-11   8.365945603749110E-11
   8.620726556550162E-11   8.883266743415499E-11   9.153802468145183E-11
   9.432577231058456E-11   9.719841948160214E-11   1.001585517698206E-10
   1.032088334930137E-10   1.063520101094750E-10   1.095909106891134E-10
   1.129284504598035E-10   1.163676334312850E-10   1.199115550989698E-10
   1.235634052300944E-10   1.273264707347210E-10   1.312041386241752E-10
   1.351998990595806E-10   1.393173484932348E-10   1.435601929056551E-10
   1.479322511412062E-10   1.524374583453124E-10   1.570798695063496E-10
   1.618636631054022E-10   1.667931448771730E-10   1.718727516854284E-10
   1.771070555164694E-10   1.825007675942203E-10   1.880587426206421E-10
   1.937859831452838E-10   1.996876440679067E-10   2.057690372782346E-10
   2.120356364370035E-10   2.184930819026173E-10   2.251471858078412E-10
   2.320039372911029E-10   2.390695078871115E-10   2.463502570816440E-10
   2.538527380354997E-10   2.615837034827754E-10   2.695501118087687E-10
   2.777591333129803E-10   2.862181566628537E-10   2.949347955440594E-10
   3.039168955133106E-10   3.131725410598764E-10   3.227100628821506E-10
   3.325380453858236E-10   3.426653344104086E-10   3.531010451910736E-10
   3.638545705629458E-10   3.749355894152762E-10   3.863540754030690E-10
   3.981203059240193E-10   4.102448713688389E-10   4.227386846532939E-10
   4.356129910405395E-10   4.488793782625825E-10   4.625497869499914E-10
   4.766365213792371E-10   4.911522605473369E-10   5.061100695837688E-10
   5.215234115099321E-10   5.374061593567339E-10   5.537726086512116E-10
   5.706374902834241E-10   5.880159837652022E-10   6.059237308926825E-10
   6.243768498249279E-10   6.433919495913012E-10   6.629861450406565E-10
   6.831770722457958E-10   7.039829043770621E-10   7.254223680593504E-10
   7.475147602272635E-10   7.702799654935808E-10   7.937384740466725E-10
   8.179114000929712E-10   8.428205008610953E-10   8.684881961847316E-10
   8.949375886819016E-10   9.221924845487798E-10   9.502774149867673E-10
   9.792176582821200E-10   1.009039262557994E-09   1.039769069219391E-09
   1.071434737112104E-09   1.104064767417413E-09   1.137688529304923E-09
   1.172336286366652E-09   1.208039223856149E-09   1.244829476757158E-09
   1.282740158707102E-09   1.321805391801399E-09   1.362060337305466E-09
   1.403541227302023E-09   1.446285397302204E-09   1.490331319849808E-09
   1.535718639148948E-09   1.582488206746270E-09   1.630682118299831E-09
   1.680343751467765E-09   1.731517804950813E-09   1.784250338723868E-09
   1.838588815492738E-09   1.894582143413454E-09   1.952280720112562E-09
   2.011736478048008E-09   2.073002931251476E-09   2.136135223494216E-09
   2.201190177919722E-09   2.268226348187953E-09   2.337304071177102E-09
   2.408485521290353E-09   2.481834766416530E-09   2.557417825594949E-09
   2.635302728436438E-09   2.715559576353964E-09   2.798260605658001E-09
   2.883480252573407E-09   2.971295220236328E-09   3.061784547731472E-09
   3.155029681231820E-09   3.251114547304862E-09   3.350125628451298E-09
   3.452152040944226E-09   3.557285615038834E-09   3.665620977624826E-09
   3.777255637395953E-09   3.892290072613290E-09   4.010827821541303E-09
   4.132975575638027E-09   4.258843275583307E-09   4.388544210231437E-09
   4.522195118577389E-09   4.659916294828246E-09   4.801831696674550E-09
   4.948069056858920E-09   5.098759998142396E-09   5.254040151771975E-09
   5.414049279555964E-09   5.578931399656988E-09   5.748834916215949E-09
   5.923912752923531E-09   6.104322490659453E-09   6.290226509323439E-09
   6.481792133985492E-09   6.679191785486998E-09   6.882603135628243E-09
   7.092209267081990E-09   7.308198838177081E-09   7.530766252700310E-09
   7.760111834869429E-09   7.996442009634769E-09   8.239969488471742E-09
   8.490913460831455E-09   8.749499791421684E-09   9.015961223495880E-09
   9.290537588333000E-09   9.573476021096931E-09   9.865031183269494E-09
   1.016546549185748E-08   1.047504935557991E-08   1.079406141824797E-08
   1.112278880955688E-08   1.146152740351523E-08   1.181058208474451E-08
   1.217026702288839E-08   1.254090595537878E-08   1.292283247881311E-08
   1.331639034920516E-08   1.372193379137959E-08   1.413982781778857E-08
   1.457044855703766E-08   1.501418359241628E-08   1.547143231073781E-08
   1.594260626180293E-08   1.642812952880998E-08   1.692843911004549E-08
   1.744398531219866E-08   1.797523215565348E-08   1.852265779212331E-08
   1.908675493500414E-08   1.966803130283302E-08   2.026701007625183E-08
   2.088423036888678E-08   2.152024771256783E-08   2.217563455732448E-08
   2.285098078660832E-08   2.354689424820546E-08   2.426400130131707E-08
   2.500294738030016E-08   2.576439757557619E-08   2.654903723222995E-08
   2.735757256683763E-08   2.819073130307925E-08   2.904926332670735E-08
   2.993394136046136E-08   3.084556165953514E-08   3.178494472822349E-08
   3.275293605839273E-08   3.375040689043951E-08   3.477825499742323E-08
   3.583740549307727E-08   3.692881166442646E-08   3.805345582975995E-08
   3.921235022273159E-08   4.040653790338353E-08   4.163709369691281E-08
   4.290512516102576E-08   4.421177358275071E-08   4.555821500560624E-08
   4.694566128804888E-08   4.837536119415342E-08   4.984860151750671E-08
   5.136670823932648E-08   5.293104772184782E-08   5.454302793805055E-08
   5.620409973883470E-08   5.791575815878377E-08   5.967954376169153E-08
   6.149704402706242E-08   6.336989477883388E-08   6.529978165760575E-08
   6.728844163770183E-08   6.933766459042868E-08   7.144929489493825E-08
   7.362523309814400E-08   7.586743762518404E-08   7.817792654197097E-08
   8.055877937141306E-08   8.301213896494304E-08   8.554021343103646E-08
   8.814527812245667E-08   9.082967768401367E-08   9.359582816267928E-08
   9.644621918195807E-08   9.938341618246958E-08   1.024100627307591E-07
   1.055288828984134E-07   1.087426837136219E-07   1.120543576873908E-07
   1.154668854166815E-07   1.189833382668157E-07   1.226068811355619E-07
   1.263407753013886E-07   1.301883813584487E-07   1.341531622409341E-07
   1.382386863395227E-07   1.424486307127211E-07   1.467867843959940E-07
   1.512570518116540E-07   1.558634562825835E-07   1.606101436529479E-07
   1.655013860191583E-07   1.705415855744403E-07   1.757352785704658E-07
   1.810871393996165E-07   1.866019848015473E-07   1.922847781978361E-07
   1.981406341586192E-07   2.041748230052310E-07   2.103927755529872E-07
   2.168000879983809E-07   2.234025269550857E-07   2.302060346432966E-07
   2.372167342370778E-07   2.444409353745271E-07   2.518851398357143E-07
   2.595560473935004E-07   2.674605618425005E-07   2.756057972116158E-07
   2.839990841657190E-07   2.926479766022569E-07   3.015602584486972E-07
   3.107439506669416E-07   3.202073184709981E-07   3.299588787644096E-07
   3.400074078041248E-07   3.503619490977089E-07   3.610318215409924E-07
   3.720266278034804E-07   3.833562629690642E-07   3.950309234398030E-07
   4.070611161107884E-07   4.194576678243403E-07   4.322317351120379E-07
   4.453948142333448E-07   4.589587515198609E-07   4.729357540344996E-07
   4.873384005551775E-07   5.021796528928920E-07   5.174728675543687E-07
   5.332318077597627E-07   5.494706558262236E-07   5.662040259284517E-07
   5.834469772477324E-07   6.012150275212608E-07   6.195241670039443E-07
   6.383908728552352E-07   6.578321239639343E-07   6.778654162242817E-07
   6.985087782770830E-07   7.197807877300166E-07   7.417005878717035E-07
   7.642879048945698E-07   7.875630656419796E-07   8.115470158956022E-07
   8.362613392194387E-07   8.617282763774627E-07   8.879707453423200E-07
   9.150123619130733E-07   9.428774609605280E-07   9.715911183192335E-07
   1.001179173345837E-06   1.031668252164063E-06   1.063085791617217E-06
   1.095460063949724E-06   1.128820202239908E-06   1.163196226606840E-06
   1.198619071214829E-06   1.235120612099811E-06   1.272733695842646E-06
   1.311492169115075E-06   1.351430909124905E-06   1.392585854987760E-06
   1.434994040053597E-06   1.478693625217015E-06   1.523723933241295E-06
   1.570125484127015E-06   1.617940031556986E-06   1.667210600450272E-06
   1.717981525659010E-06   1.770298491842813E-06   1.824208574556538E-06
   1.879760282588339E-06   1.937003601586046E-06   1.995990039011010E-06
   2.056772670459825E-06   2.119406187395498E-06   2.183946946330925E-06
   2.250453019508865E-06   2.318984247123875E-06   2.389602291133120E-06
   2.462370690704368E-06   2.537354919350918E-06   2.614622443804788E-06
   2.694242784680987E-06   2.776287578987320E-06   2.860830644535856E-06
   2.947948046313829E-06   3.037718164873555E-06   3.130221766802759E-06
   3.225542077338490E-06   3.323764855189844E-06   3.424978469636561E-06
   3.529273979972722E-06   3.636745217366775E-06   3.747488869211349E-06
   3.861604566038487E-06   3.979194971078289E-06   4.100365872541232E-06
   4.225226278706968E-06   4.353888515904876E-06   4.486468329474177E-06
   4.623084987794141E-06   4.763861389477696E-06   4.908924173824465E-06
   5.058403834632282E-06   5.212434837469170E-06   5.371155740510889E-06
   5.534709319052368E-06   5.703242693804516E-06   5.876907463091451E-06
   6.055859839066487E-06   6.240260788069007E-06   6.430276175247854E-06
   6.626076913580779E-06   6.827839117423441E-06   7.035744260725464E-06
   7.249979340055080E-06   7.470737042578525E-06   7.698215919144312E-06
   7.932620562627511E-06   8.174161791693490E-06   8.423056840145701E-06
   8.679529552026772E-06   8.943810582647550E-06   9.216137605723941E-06
   9.496755526806745E-06   9.785916703195378E-06   1.008388117053215E-05
   1.039091687627964E-05   1.070729992028996E-05   1.103331480268084E-05
   1.136925467924016E-05   1.171542162458702E-05   1.207212690332463E-05
   1.243969124942705E-05   1.281844515410951E-05   1.320872916243922E-05
   1.361089417895168E-05   1.402530178254510E-05   1.445232455093418E-05
   1.489234639495277E-05   1.534576290300367E-05   1.581298169596277E-05
   1.629442279285435E-05   1.679051898762338E-05   1.730171623734084E-05
   1.782847406218828E-05   1.837126595757782E-05   1.893057981877513E-05
   1.950691837840354E-05   2.010079965721903E-05   2.071275742855741E-05
   2.134334169686739E-05   2.199311919075554E-05   2.266267387098161E-05
   2.335260745385659E-05   2.406353995050889E-05   2.479611022249815E-05
   2.555097655427085E-05   2.632881724296662E-05   2.713033120609903E-05
   2.795623860765121E-05   2.880728150314209E-05   2.968422450423608E-05
   3.058785546348615E-05   3.151898617981840E-05   3.247845312538322E-05
   3.346711819441847E-05   3.448586947478838E-05   3.553562204288194E-05
   3.661731878257521E-05   3.773193122898336E-05   3.888046043774916E-05
   4.006393788063769E-05   4.128342636822978E-05   4.254002100053058E-05
   4.383485014633352E-05   4.516907645220608E-05   4.654389788198844E-05
   4.796054878772325E-05   4.942030101296282E-05   5.092446502942645E-05
   5.247439110801226E-05   5.407147052519504E-05   5.571713680587406E-05
   5.741286700376632E-05   5.916018302047297E-05   6.096065296437971E-05
   6.281589255058788E-05   6.472756654310695E-05   6.669739024057701E-05
   6.872713100682599E-05   7.081860984760755E-05   7.297370303490177E-05
   7.519434378020606E-05   7.748252395828204E-05   7.984029588287012E-05
   8.226977413592750E-05   8.477313745199080E-05   8.735263065931255E-05
   9.001056667946870E-05   9.274932858718576E-05   9.557137173218575E-05
   9.847922592490195E-05   1.014754976879722E-04   1.045628725754725E-04
   1.077441175619114E-04   1.110220835030658E-04   1.143997076707988E-04
   1.178800163640638E-04   1.214661275983623E-04   1.251612538759934E-04
   1.289687050394935E-04   1.328918912107454E-04   1.369343258182971E-04
   1.410996287155150E-04   1.453915293922657E-04   1.498138702829020E-04
   1.543706101734085E-04   1.590658277106483E-04   1.639037250167311E-04
   1.688886314116178E-04   1.740250072471637E-04   1.793174478558931E-04
   1.847706876179000E-04   1.903896041493574E-04   1.961792226162302E-04
   2.021447201768791E-04   2.082914305573574E-04   2.146248487633083E-04
   2.211506359324821E-04   2.278746243320077E-04   2.348028225046769E-04
   2.419414205686106E-04   2.492967956748139E-04   2.568755176272446E-04
   2.646843546701583E-04   2.727302794476252E-04   2.810204751402556E-04
   2.895623417843086E-04   2.983635027785134E-04   3.074318115840744E-04
   3.167753586234894E-04   3.264024783839735E-04   3.363217567314334E-04
   3.465420384411133E-04   3.570724349512010E-04   3.679223323458574E-04
   3.791013995743172E-04   3.906195969128869E-04   4.024871846768631E-04
   4.147147321895847E-04   4.273131270160311E-04   4.402935844685892E-04
   4.536676573928104E-04   4.674472462412080E-04   4.816446094433536E-04
   4.962723740807664E-04   5.113435468753093E-04   5.268715255000606E-04
   5.428701102218499E-04   5.593535158849155E-04   5.763363842453877E-04
   5.938337966665589E-04   6.118612871851764E-04   6.304348559592616E-04
   6.495709831082374E-04   6.692866429564494E-04   6.895993186914241E-04
   7.105270174485473E-04   7.320882858341174E-04   7.543022258990665E-04
   7.771885115759493E-04   8.007674055921275E-04   8.250597768724230E-04
   8.500871184448321E-04   8.758715658632647E-04   9.024359161616204E-04
   9.298036473538654E-04   9.579989384951646E-04   9.870466903194853E-04
   1.016972546469488E-03   1.047802915334891E-03   1.079564992515934E-03
   1.112286783928928E-03   1.145997129571341E-03   1.180725727964249E-03
   1.216503161290449E-03   1.253360921246946E-03   1.291331435630987E-03
   1.330448095679256E-03   1.370745284180312E-03   1.412258404380821E-03
   1.455023909706608E-03   1.499079334320021E-03   1.544463324535631E-03
   1.591215671116720E-03   1.639377342475584E-03   1.688990518801135E-03
   1.740098627137817E-03   1.792746377440373E-03   1.846979799629538E-03
   1.902846281674215E-03   1.960394608726302E-03   2.019675003334802E-03
   2.080739166766439E-03   2.143640321460530E-03   2.208433254646423E-03
   2.275174363152341E-03   2.343921699435070E-03   2.414735018860414E-03
   2.487675828264957E-03   2.562807435830192E-03   2.640195002300641E-03
   2.719905593578135E-03   2.802008234724962E-03   2.886573965409129E-03
   2.973675896825569E-03   3.063389270127556E-03   3.155791516403229E-03
   3.250962318232500E-03   3.348983672860287E-03   3.449939957022308E-03
   3.553917993460352E-03   3.661007119164189E-03   3.771299255377929E-03
   3.884888979408840E-03   4.001873598277242E-03   4.122353224246315E-03
   4.246430852271068E-03   4.374212439406036E-03   4.505806986211502E-03
   4.641326620198369E-03   4.780886681351937E-03   4.924605809775082E-03
   5.072606035491363E-03   5.225012870448776E-03   5.381955402764804E-03
   5.543566393253421E-03   5.709982374274565E-03   5.881343750946541E-03
   6.057794904761437E-03   6.239484299643502E-03   6.426564590489908E-03
   6.619192734232908E-03   6.817530103461847E-03   7.021742602642815E-03
   7.232000786972984E-03   7.448479983905810E-03   7.671360417382186E-03
   7.900827334801774E-03   8.137071136767100E-03   8.380287509632085E-03
   8.630677560884701E-03   8.888447957392156E-03   9.153811066534748E-03
   9.426985100252919E-03   9.708194262029396E-03   9.997668896826201E-03
   1.029564564399365E-02   1.060236759316534E-02   1.091808444315045E-02
   1.124305266383098E-02   1.157753566106834E-02   1.192180394461941E-02
   1.227613529905866E-02   1.264081495769768E-02   1.301613577948968E-02
   1.340239842890055E-02   1.379991155872312E-02   1.420899199580562E-02
   1.462996492965862E-02   1.506316410389875E-02   1.550893201048011E-02
   1.596762008665706E-02   1.643958891461427E-02   1.692520842369124E-02
   1.742485809512005E-02   1.793892716918557E-02   1.846781485470732E-02
   1.901193054073197E-02   1.957169401031420E-02   2.014753565625227E-02
   2.073989669863177E-02   2.134922940401911E-02   2.197599730613137E-02
   2.262067542779596E-02   2.328375050399793E-02   2.396572120579680E-02
   2.466709836487879E-02   2.538840519849225E-02   2.613017753449635E-02
   2.689296403623378E-02   2.767732642691824E-02   2.848383971320680E-02
   2.931309240760521E-02   3.016568674933154E-02   3.104223892323988E-02
   3.194337927638124E-02   3.286975253175244E-02   3.382201799875825E-02
   3.480084977988248E-02   3.580693697303669E-02   3.684098386902409E-02
   3.790371014352540E-02   3.899585104298160E-02   4.011815756371500E-02
   4.127139662359626E-02   4.245635122552863E-02   4.367382061198601E-02
   4.492462040980162E-02   4.620958276436754E-02   4.752955646236490E-02
   4.888540704210421E-02   5.027801689051389E-02   5.170828532577238E-02
   5.317712866453671E-02   5.468548027267638E-02   5.623429059837606E-02
   5.782452718642648E-02   5.945717467247658E-02   6.113323475597405E-02
   6.285372615047577E-02   6.461968450996231E-02   6.643216232974468E-02
   6.829222882050608E-02   7.020096975397502E-02   7.215948727868163E-02
   7.416889970420439E-02   7.623034125227227E-02   7.834496177304524E-02
   8.051392642485664E-02   8.273841531566242E-02   8.501962310440789E-02
   8.735875856048977E-02   8.975704407946128E-02   9.221571515310305E-02
   9.473601979196167E-02   9.731921789843916E-02   9.996658058850594E-02
   1.026793894601042E-01   1.054589358063079E-01   1.083065197713146E-01
   1.112234494473575E-01   1.142110399106508E-01   1.172706121945149E-01
   1.204034921978687E-01   1.236110095273320E-01   1.268944962712444E-01
   1.302552857039851E-01   1.336947109190726E-01   1.372141033896229E-01
   1.408147914548721E-01   1.444980987316039E-01   1.482653424494789E-01
   1.521178317094367E-01   1.560568656645341E-01   1.600837316228001E-01
   1.641997030719209E-01   1.684060376258315E-01   1.727039748935696E-01
   1.770947342710578E-01   1.815795126568163E-01   1.861594820929630E-01
   1.908357873332547E-01   1.956095433403340E-01   2.004818327147960E-01
   2.054537030591678E-01   2.105261642803945E-01   2.157001858349682E-01
   2.209766939214037E-01   2.263565686253628E-01   2.318406410233593E-01
   2.374296902516344E-01   2.431244405474842E-01   2.489255582710367E-01
   2.548336489162176E-01   2.608492541204124E-01   2.669728486831288E-01
   2.732048376047675E-01   2.795455531574445E-01   2.859952520006458E-01
   2.925541123553532E-01   2.992222312511313E-01   3.059996218615302E-01
   3.128862109440082E-01   3.198818364014153E-01   3.269862449829111E-01
   3.341990901429762E-01   3.415199300779479E-01   3.489482259602200E-01
   3.564833403909213E-01   3.641245360924898E-01   3.718709748630818E-01
   3.797217168152137E-01   3.876757199213678E-01   3.957318398895457E-01
   4.038888303918564E-01   4.121453436692161E-01   4.204999315350609E-01
   4.289510468006399E-01   4.374970451439453E-01   4.461361874436290E-01
   4.548666425983434E-01   4.636864908508065E-01   4.725937276345220E-01
   4.815862679594714E-01   4.906619513512051E-01   4.998185473556111E-01
   5.090537616191999E-01   5.183652425520043E-01   5.277505885771602E-01
   5.372073559678822E-01   5.467330672688874E-01   5.563252202953352E-01
   5.659812976980453E-01   5.756987770791323E-01   5.854751416372631E-01
   5.953078913164840E-01   6.051945544270183E-01   6.151326997005983E-01
   6.251199487367611E-01   6.351539887901972E-01   6.452325858425914E-01
   6.553535978955966E-01   6.655149884145686E-01   6.757148398455072E-01
   6.859513671203790E-01   6.962229310586283E-01   7.065280515652591E-01
   7.168654205184601E-01   7.272339142324178E-01   7.376326053736821E-01
   7.480607742023960E-01   7.585179190028681E-01   7.690037655614016E-01
   7.795182755432102E-01   7.900616536145574E-01   8.006343531512132E-01
   8.112370803699822E-01   8.218707967165237E-01   8.325367193401934E-01
   8.432363194853175E-01   8.539713186283339E-01   8.647436821919474E-01
   8.755556106709883E-01   8.864095280104720E-01   8.973080670846980E-01
   9.082540521375918E-01   9.192504780592590E-01   9.303004863925539E-01
   9.414073379867656E-01   9.525743822441708E-01   9.638050229396981E-01
   9.751026806351942E-01   9.864707517585850E-01   9.979125644753140E-01
   1.009431331545809E+00   1.021030100439047E+00   1.032711701059381E+00
   1.044478691542120E+00   1.056333302683381E+00   1.068277381691369E+00
   1.080312336079058E+00   1.092439078661218E+00   1.104657974769882E+00
   1.116968792958853E+00   1.129370660625427E+00   1.141862026130360E+00
   1.154440629137441E+00   1.167103481011745E+00   1.179846857197716E+00
   1.192666303528443E+00   1.205556658375785E+00   1.218512092412656E+00
   1.231526167494194E+00   1.244591915737953E+00   1.257701939252450E+00
   1.270848530078257E+00   1.284023808707457E+00   1.297219877966744E+00
   1.310428987005907E+00   1.323643697532013E+00   1.336857041159088E+00
   1.350062652672326E+00   1.363254858979453E+00   1.376428697355858E+00
   1.389579829065372E+00   1.402704313872135E+00   1.415798311839936E+00
   1.428857991555245E+00   1.441879526602889E+00   1.454859098832274E+00
   1.467792901654528E+00   1.480677143379547E+00   1.493508050601648E+00
   1.506281871641730E+00   1.518994880052704E+00   1.531643378193441E+00
   1.544223700874578E+00   1.556732219077342E+00   1.569165343743951E+00
   1.581519529635301E+00   1.593791279248470E+00   1.605977146783115E+00
   1.618073742142143E+00   1.630077734948082E+00   1.641985858552498E+00
   1.653794914011546E+00   1.665501773996498E+00   1.677103386603688E+00
   1.688596779024274E+00   1.699979061030083E+00   1.711247428228172E+00
   1.722399165033473E+00   1.733431647306043E+00   1.744342344597631E+00
   1.755128821950722E+00   1.765788741192624E+00   1.776319861668526E+00
   1.786720040358851E+00   1.796987231329050E+00   1.807119484464353E+00
   1.817114943447567E+00   1.826971842944679E+00   1.836688504971044E+00
   1.846263334420038E+00   1.855694813746236E+00   1.864981496806161E+00
   1.874122001871399E+00   1.883115003841016E+00   1.891959225692786E+00
   1.900653429225085E+00   1.909196405153654E+00   1.917586962639193E+00
   1.925823918332656E+00   1.933906085035437E+00   1.941832260080537E+00
   1.949601213548267E+00   1.957211676436207E+00   1.964662328907723E+00
   1.971951788746062E+00   1.979078600142073E+00   1.986041222942780E+00
   1.992838022485507E+00   1.999467260137815E+00   2.005927084657477E+00
   2.012215524478993E+00   2.018330481023825E+00   2.024269723120871E+00
   2.030030882611649E+00   2.035611451201507E+00   2.041008778604018E+00
   2.046220072010685E+00   2.051242396902489E+00   2.056072679203691E+00
   2.060707708762037E+00   2.065144144123107E+00   2.069378518550522E+00
   2.073407247227986E+00   2.077226635564199E+00   2.080832888507679E+00
   2.084222120765693E+00   2.087390367810165E+00   2.090333597543719E+00
   2.093047722491360E+00   2.095528612377613E+00   2.097772106945841E+00
   2.099774028875583E+00   2.101530196655835E+00   2.103036437276794E+00
   2.104288598610175E+00   2.105282561358516E+00   2.106014250467098E+00
   2.106479645907956E+00   2.106674792763973E+00   2.106595810561819E+00
   2.106238901825476E+00   2.105600359846675E+00   2.104676575694506E+00
   2.103464044513110E+00   2.101959371182966E+00   2.100159275447242E+00
   2.098060596628895E+00   2.095660298085485E+00   2.092955471565996E+00
   2.089943341645542E+00   2.086621270418668E+00   2.082986762628172E+00
   2.079037471392160E+00   2.074771204666694E+00   2.070185932543633E+00
   2.065279795432596E+00   2.060051113112509E+00   2.054498394564050E+00
   2.048620348411453E+00   2.042415893715309E+00   2.035884170772261E+00
   2.029024551499990E+00   2.021836648924014E+00   2.014320325245016E+00
   2.006475697958680E+00   1.998303143530950E+00   1.989803298203576E+00
   1.980977055618227E+00   1.971825561098688E+00   1.962350202611908E+00
   1.952552598628001E+00   1.942434583301942E+00   1.931998189588653E+00
   1.921245631061628E+00   1.910179283317743E+00   1.898801665905888E+00
   1.887115425707269E+00   1.875123322619458E+00   1.862828218260304E+00
   1.850233068221392E+00   1.837340918179135E+00   1.824154903933331E+00
   1.810678255206956E+00   1.796914302825100E+00   1.782866488711213E+00
   1.768538378006361E+00   1.753933672538896E+00   1.739056224849198E+00
   1.723910052003927E+00   1.708499348508987E+00   1.692828497740490E+00
   1.676902081446400E+00   1.660724887016400E+00   1.644301912362630E+00
   1.627638368389698E+00   1.610739679151380E+00   1.593611479888841E+00
   1.576259613218383E+00   1.558690123785411E+00   1.540909251726687E+00
   1.522923425287868E+00   1.504739252930982E+00   1.486363515240768E+00
   1.467803156903238E+00   1.449065278990066E+00   1.430157131736559E+00
   1.411086107953875E+00   1.391859737176809E+00   1.372485680606897E+00
   1.352971726871677E+00   1.333325788589676E+00   1.313555899702318E+00
   1.293670213510060E+00   1.273677001330469E+00   1.253584651680087E+00
   1.233401669869684E+00   1.213136677893250E+00   1.192798414484641E+00
   1.172395735211786E+00   1.151937612476507E+00   1.131433135288118E+00
   1.110891508680866E+00   1.090322052648782E+00   1.069734200476666E+00
   1.049137496352467E+00   1.028541592154354E+00   1.007956243315171E+00
   9.873913036776576E-01   9.668567192657420E-01   9.463625209103332E-01
   9.259188156820743E-01   9.055357770984992E-01   8.852236340886760E-01
   8.649926587145466E-01   8.448531526645434E-01   8.248154325515002E-01
   8.048898140630228E-01   7.850865950281989E-01   7.654160374794897E-01
   7.458883488026453E-01   7.265136620803047E-01   7.073020157464047E-01
   6.882633326784252E-01   6.694073988627782E-01   6.507438417751402E-01
   6.322821086222686E-01   6.140314445947168E-01   5.960008712809644E-01
   5.781991653928351E-01   5.606348379497464E-01   5.433161140654509E-01
   0.000000000000000E+00   0.000000000000000E+00   0.000000000000000E+00
   0.000000000000000E+00   0.000000000000000E+00   0.000000000000000E+00
   0.000000000000000E+00   0.000000000000000E+00   0.000000000000000E+00
   0.000000000000000E+00   0.000000000000000E+00   0.000000000000000E+00
   0.000000000000000E+00   0.000000000000000E+00   0.000000000000000E+00
   0.000000000000000E+00   0.000000000000000E+00   0.000000000000000E+00
   0.000000000000000E+00   0.000000000000000E+00   0.000000000000000E+00
   0.000000000000000E+00   0.000000000000000E+00   0.000000000000000E+00
   0.000000000000000E+00   0.000000000000000E+00   0.000000000000000E+00
   0.000000000000000E+00   0.000000000000000E+00   0.000000000000000E+00
   0.000000000000000E+00   0.000000000000000E+00   0.000000000000000E+00
   0.000000000000000E+00   0.000000000000000E+00   0.000000000000000E+00
   0.000000000000000E+00   0.000000000000000E+00   0.000000000000000E+00
   0.000000000000000E+00   0.000000000000000E+00   0.000000000000000E+00
   0.000000000000000E+00   0.000000000000000E+00   0.000000000000000E+00
   0.000000000000000E+00   0.000000000000000E+00   0.000000000000000E+00
   0.000000000000000E+00   0.000000000000000E+00   0.000000000000000E+00
   0.000000000000000E+00   0.000000000000000E+00   0.000000000000000E+00
   0.000000000000000E+00   0.000000000000000E+00   0.000000000000000E+00
   0.000000000000000E+00   0.000000000000000E+00   0.000000000000000E+00
   0.000000000000000E+00   0.000000000000000E+00   0.000000000000000E+00
   0.000000000000000E+00   0.000000000000000E+00   0.000000000000000E+00
   0.000000000000000E+00   0.000000000000000E+00   0.000000000000000E+00
   0.000000000000000E+00   0.000000000000000E+00   0.000000000000000E+00
   0.000000000000000E+00   0.000000000000000E+00   0.000000000000000E+00
   0.000000000000000E+00   0.000000000000000E+00   0.000000000000000E+00
   0.000000000000000E+00   0.000000000000000E+00   0.000000000000000E+00
   0.000000000000000E+00   0.000000000000000E+00   0.000000000000000E+00
   0.000000000000000E+00   0.000000000000000E+00   0.000000000000000E+00
   0.000000000000000E+00   0.000000000000000E+00   0.000000000000000E+00
   0.000000000000000E+00   0.000000000000000E+00   0.000000000000000E+00
   0.000000000000000E+00   0.000000000000000E+00   0.000000000000000E+00
   0.000000000000000E+00   0.000000000000000E+00   0.000000000000000E+00
   0.000000000000000E+00   0.000000000000000E+00   0.000000000000000E+00
   0.000000000000000E+00   0.000000000000000E+00   0.000000000000000E+00
   0.000000000000000E+00   0.000000000000000E+00   0.000000000000000E+00
   0.000000000000000E+00   0.000000000000000E+00   0.000000000000000E+00
   0.000000000000000E+00   0.000000000000000E+00   0.000000000000000E+00
   0.000000000000000E+00   0.000000000000000E+00   0.000000000000000E+00
   0.000000000000000E+00   0.000000000000000E+00   0.000000000000000E+00
   0.000000000000000E+00   0.000000000000000E+00   0.000000000000000E+00
   0.000000000000000E+00   0.000000000000000E+00   0.000000000000000E+00
   0.000000000000000E+00   0.000000000000000E+00   0.000000000000000E+00
   0.000000000000000E+00   0.000000000000000E+00   0.000000000000000E+00
   0.000000000000000E+00   0.000000000000000E+00   0.000000000000000E+00
   0.000000000000000E+00   0.000000000000000E+00   0.000000000000000E+00
   0.000000000000000E+00   0.000000000000000E+00   0.000000000000000E+00
   0.000000000000000E+00   0.000000000000000E+00   0.000000000000000E+00
   0.000000000000000E+00   0.000000000000000E+00   0.000000000000000E+00
   0.000000000000000E+00   0.000000000000000E+00   0.000000000000000E+00
   0.000000000000000E+00   0.000000000000000E+00   0.000000000000000E+00
   0.000000000000000E+00   0.000000000000000E+00   0.000000000000000E+00
   0.000000000000000E+00   0.000000000000000E+00   0.000000000000000E+00
   0.000000000000000E+00   0.000000000000000E+00   0.000000000000000E+00
   0.000000000000000E+00   0.000000000000000E+00   0.000000000000000E+00
   0.000000000000000E+00   0.000000000000000E+00   0.000000000000000E+00
   0.000000000000000E+00   0.000000000000000E+00   0.000000000000000E+00
   0.000000000000000E+00   0.000000000000000E+00   0.000000000000000E+00
   0.000000000000000E+00   0.000000000000000E+00   0.000000000000000E+00
   0.000000000000000E+00   0.000000000000000E+00   0.000000000000000E+00
   0.000000000000000E+00   0.000000000000000E+00   0.000000000000000E+00
   0.000000000000000E+00   0.000000000000000E+00   0.000000000000000E+00
   0.000000000000000E+00   0.000000000000000E+00   0.000000000000000E+00
   0.000000000000000E+00
        </PP_GIPAW_WFS_PS>
      </PP_GIPAW_ORBITAL.5>
    </PP_GIPAW_ORBITALS>
    <PP_GIPAW_VLOCAL>
      <PP_GIPAW_VLOCAL_AE size="1525">
  -2.802297412574574E+01  -2.802357325702612E+01  -2.802418194535963E+01
  -2.802480014724182E+01  -2.802542781801153E+01  -2.802606491180607E+01
  -2.802671138151041E+01  -2.802736717871080E+01  -2.802803225364491E+01
  -2.802870655515210E+01  -2.802939003062193E+01  -2.803008262594236E+01
  -2.803078428544652E+01  -2.803149495185864E+01  -2.803221456623886E+01
  -2.803294306792685E+01  -2.803368039448469E+01  -2.803442648163821E+01
  -2.803518126321748E+01  -2.803594467109608E+01  -2.803671663512918E+01
  -2.803749708309038E+01  -2.803828594060742E+01  -2.803908313109659E+01
  -2.803988857569584E+01  -2.804070219319662E+01  -2.804152389997455E+01
  -2.804235360991833E+01  -2.804319123435774E+01  -2.804403668198995E+01
  -2.804488985880444E+01  -2.804575066800648E+01  -2.804661900993900E+01
  -2.804749478200310E+01  -2.804837787857672E+01  -2.804928753731891E+01
  -2.805016255319062E+01  -2.805104620365102E+01  -2.805199713988272E+01
  -2.805284099248222E+01  -2.805367001189688E+01  -2.805459027169490E+01
  -2.805551834913901E+01  -2.805644689451895E+01  -2.805733942520224E+01
  -2.805822019830877E+01  -2.805926347558053E+01  -2.806030357616027E+01
  -2.806116763168765E+01  -2.806215119834632E+01  -2.806314072741027E+01
  -2.806407687700299E+01  -2.806523626134688E+01  -2.806620884225851E+01
  -2.806717005694395E+01  -2.806818891119701E+01  -2.806921179542061E+01
  -2.807027082802768E+01  -2.807127183658892E+01  -2.807230734642611E+01
  -2.807334544517835E+01  -2.807444645724077E+01  -2.807548512450041E+01
  -2.807660607816831E+01  -2.807754370835662E+01  -2.807856757527312E+01
  -2.807961977709684E+01  -2.808067321034944E+01  -2.808172741259357E+01
  -2.808282972005700E+01  -2.808388202916993E+01  -2.808484728807294E+01
  -2.808590382165492E+01  -2.808695922841757E+01  -2.808806115940704E+01
  -2.808905997522149E+01  -2.809007531073287E+01  -2.809121576062107E+01
  -2.809226155171752E+01  -2.809321238011883E+01  -2.809425068152117E+01
  -2.809536567978169E+01  -2.809637091061857E+01  -2.809739574296652E+01
  -2.809832349358955E+01  -2.809933645408389E+01  -2.810043347876625E+01
  -2.810151271422724E+01  -2.810248822553099E+01  -2.810342710512154E+01
  -2.810435566376231E+01  -2.810532289734395E+01  -2.810628064020071E+01
  -2.810713847193453E+01  -2.810815855355108E+01  -2.810911977486712E+01
  -2.811012681599359E+01  -2.811098039529920E+01  -2.811187358794633E+01
  -2.811271788035477E+01  -2.811358670189481E+01  -2.811438586926344E+01
  -2.811530647921213E+01  -2.811617884116767E+01  -2.811696126110039E+01
  -2.811778775591176E+01  -2.811857229886895E+01  -2.811934138757536E+01
  -2.812009468424782E+01  -2.812077261290395E+01  -2.812153793059691E+01
  -2.812229320503364E+01  -2.812298147095624E+01  -2.812365243327431E+01
  -2.812424522943675E+01  -2.812496019600003E+01  -2.812557701623651E+01
  -2.812615051783432E+01  -2.812673468665540E+01  -2.812735230755606E+01
  -2.812789570628534E+01  -2.812842008226236E+01  -2.812892527620387E+01
  -2.812941116564702E+01  -2.812979279889414E+01  -2.813024050751380E+01
  -2.813073771473168E+01  -2.813120517687416E+01  -2.813164778808270E+01
  -2.813201516099445E+01  -2.813230304771749E+01  -2.813260730747134E+01
  -2.813291574589439E+01  -2.813320424963721E+01  -2.813347284715132E+01
  -2.813372157572879E+01  -2.813389012023800E+01  -2.813415611344439E+01
  -2.813439122104361E+01  -2.813459803604401E+01  -2.813474727756682E+01
  -2.813487708085756E+01  -2.813493027689136E+01  -2.813502208283681E+01
  -2.813509486735539E+01  -2.813514880449305E+01  -2.813518405272434E+01
  -2.813520080173635E+01  -2.813522755765507E+01  -2.813519193733529E+01
  -2.813515409512545E+01  -2.813509853643692E+01  -2.813502550298633E+01
  -2.813497879760799E+01  -2.813487038411261E+01  -2.813474519738522E+01
  -2.813460348932225E+01  -2.813444553017167E+01  -2.813420956957530E+01
  -2.813402114872626E+01  -2.813381729195446E+01  -2.813362857922165E+01
  -2.813342448192707E+01  -2.813317456584137E+01  -2.813291035806803E+01
  -2.813263216001481E+01  -2.813234027312761E+01  -2.813199750785448E+01
  -2.813170752029578E+01  -2.813137613065370E+01  -2.813101934348780E+01
  -2.813066387321037E+01  -2.813029655942164E+01  -2.812991771140263E+01
  -2.812952763506668E+01  -2.812914355472817E+01  -2.812875150775016E+01
  -2.812832816387607E+01  -2.812786798465699E+01  -2.812742580896704E+01
  -2.812697424006406E+01  -2.812651357627147E+01  -2.812604411038904E+01
  -2.812555915474624E+01  -2.812508405824253E+01  -2.812458950548161E+01
  -2.812408731263938E+01  -2.812357775406992E+01  -2.812306110645614E+01
  -2.812253764093664E+01  -2.812199543782220E+01  -2.812147159228904E+01
  -2.812092888184447E+01  -2.812038040816162E+01  -2.811982641585921E+01
  -2.811926714936202E+01  -2.811870284853450E+01  -2.811813302419718E+01
  -2.811755987727699E+01  -2.811698237776881E+01  -2.811640074470071E+01
  -2.811581519087516E+01  -2.811522592450301E+01  -2.811462858884730E+01
  -2.811402781572979E+01  -2.811342868026679E+01  -2.811282661376275E+01
  -2.811222179686688E+01  -2.811161440562551E+01  -2.811099694278003E+01
  -2.811038726460797E+01  -2.810977225326823E+01  -2.810915533591495E+01
  -2.810853666204471E+01  -2.810791637556546E+01  -2.810730261032380E+01
  -2.810667996324018E+01  -2.810605609627322E+01  -2.810543113181713E+01
  -2.810480518590623E+01  -2.810418661839006E+01  -2.810355964817072E+01
  -2.810293201110782E+01  -2.810230380520731E+01  -2.810167512657381E+01
  -2.810104606892343E+01  -2.810041671806414E+01  -2.809978715721611E+01
  -2.809913885900945E+01  -2.809850870093706E+01  -2.809787856605333E+01
  -2.809724851707342E+01  -2.809660207493652E+01  -2.809596802071741E+01
  -2.809533813591729E+01  -2.809470857661585E+01  -2.809407938910109E+01
  -2.809346753133511E+01  -2.809283949066589E+01  -2.809221192950580E+01
  -2.809158488487444E+01  -2.809097727912222E+01  -2.809035165601452E+01
  -2.808972661174368E+01  -2.808910217142075E+01  -2.808847835022186E+01
  -2.808785516870984E+01  -2.808723263348004E+01  -2.808661075328606E+01
  -2.808598954164564E+01  -2.808536899900708E+01  -2.808474911519593E+01
  -2.808412989844711E+01  -2.808351134804238E+01  -2.808289344554566E+01
  -2.808227619320415E+01  -2.808165959174243E+01  -2.808104363711180E+01
  -2.808040198734455E+01  -2.807978720848093E+01  -2.807917304223693E+01
  -2.807853908297355E+01  -2.807791760450640E+01  -2.807730511244244E+01
  -2.807669315349207E+01  -2.807610508165412E+01  -2.807549414482570E+01
  -2.807488365357939E+01  -2.807429892418578E+01  -2.807368925419744E+01
  -2.807307993892783E+01  -2.807247096879412E+01  -2.807186229985893E+01
  -2.807125389081763E+01  -2.807064571183956E+01  -2.807003774416238E+01
  -2.806942992565576E+01  -2.806882221036066E+01  -2.806821456776131E+01
  -2.806760695375401E+01  -2.806699932784311E+01  -2.806639164781145E+01
  -2.806578387069310E+01  -2.806517595268209E+01  -2.806456784917724E+01
  -2.806395951482668E+01  -2.806335090354225E+01  -2.806274196851311E+01
  -2.806213266223530E+01  -2.806152293650710E+01  -2.806091274247310E+01
  -2.806030203065548E+01  -2.805969075142326E+01  -2.805907885227726E+01
  -2.805846626780465E+01  -2.805785293466258E+01  -2.805723881291619E+01
  -2.805662384343405E+01  -2.805600797407182E+01  -2.805539118750639E+01
  -2.805474667561814E+01  -2.805412807711055E+01  -2.805349043899001E+01
  -2.805285920877655E+01  -2.805223742014405E+01  -2.805163886018120E+01
  -2.805101421836267E+01  -2.805041379533037E+01  -2.804978606754382E+01
  -2.804915685199010E+01  -2.804852615639463E+01  -2.804789386289539E+01
  -2.804725993758551E+01  -2.804662428560597E+01  -2.804598682215967E+01
  -2.804534750780115E+01  -2.804470627310925E+01  -2.804406305827485E+01
  -2.804341780117397E+01  -2.804277043942908E+01  -2.804212091034731E+01
  -2.804146915085213E+01  -2.804081509747050E+01  -2.804015868637387E+01
  -2.803949985335098E+01  -2.803883853381005E+01  -2.803817466279151E+01
  -2.803750817495263E+01  -2.803683900457400E+01  -2.803616708556428E+01
  -2.803549235143943E+01  -2.803481473534244E+01  -2.803413417002251E+01
  -2.803345058784227E+01  -2.803276392077368E+01  -2.803207410039335E+01
  -2.803138105788205E+01  -2.803068472401563E+01  -2.802998502917538E+01
  -2.802928190332180E+01  -2.802857527601338E+01  -2.802786507638792E+01
  -2.802715123315356E+01  -2.802643367460591E+01  -2.802571232859745E+01
  -2.802498712255130E+01  -2.802425798345451E+01  -2.802352483783820E+01
  -2.802278761179084E+01  -2.802204623093942E+01  -2.802130062044266E+01
  -2.802055070499972E+01  -2.801979640882650E+01  -2.801903765565979E+01
  -2.801827436875737E+01  -2.801750647087021E+01  -2.801673388426020E+01
  -2.801595653067677E+01  -2.801517433135203E+01  -2.801438720700182E+01
  -2.801359507781134E+01  -2.801279786343040E+01  -2.801199548296650E+01
  -2.801118785495970E+01  -2.801037489733955E+01  -2.800955652795207E+01
  -2.800873266189660E+01  -2.800790319927239E+01  -2.800706803503881E+01
  -2.800622709387405E+01  -2.800538032384793E+01  -2.800450927134378E+01
  -2.800364169643779E+01  -2.800276747323748E+01  -2.800191468135290E+01
  -2.800105549439371E+01  -2.800017168895197E+01  -2.799928163198401E+01
  -2.799838517317902E+01  -2.799748204023837E+01  -2.799657217651910E+01
  -2.799565550559532E+01  -2.799473192192461E+01  -2.799380133412922E+01
  -2.799286364712460E+01  -2.799191876523953E+01  -2.799096659209059E+01
  -2.799000703054647E+01  -2.798903998269743E+01  -2.798806534984746E+01
  -2.798708303253326E+01  -2.798609293048044E+01  -2.798509494259156E+01
  -2.798408896696802E+01  -2.798307490086430E+01  -2.798205264070483E+01
  -2.798102208206596E+01  -2.797998311964261E+01  -2.797893564727956E+01
  -2.797787955792531E+01  -2.797681474362030E+01  -2.797574109550699E+01
  -2.797465850381273E+01  -2.797356685783923E+01  -2.797246604593990E+01
  -2.797135595550368E+01  -2.797023647296152E+01  -2.796910748378787E+01
  -2.796796887244219E+01  -2.796682052238523E+01  -2.796566231607255E+01
  -2.796449413492428E+01  -2.796331585934114E+01  -2.796212736866083E+01
  -2.796092854114434E+01  -2.795971925398790E+01  -2.795849938331031E+01
  -2.795726880412106E+01  -2.795602739029411E+01  -2.795477501458700E+01
  -2.795351154863609E+01  -2.795223686290280E+01  -2.795095082666376E+01
  -2.794965330803029E+01  -2.794834417392873E+01  -2.794702329005801E+01
  -2.794569052088090E+01  -2.794434572963510E+01  -2.794298877831377E+01
  -2.794161952762692E+01  -2.794023783699340E+01  -2.793884356454728E+01
  -2.793743656711306E+01  -2.793601670018008E+01  -2.793458381788550E+01
  -2.793313777301356E+01  -2.793167841698631E+01  -2.793020559982262E+01
  -2.792871917013400E+01  -2.792721897511209E+01  -2.792570486050824E+01
  -2.792417667063138E+01  -2.792263424830995E+01  -2.792107743487373E+01
  -2.791950607016319E+01  -2.791791999250281E+01  -2.791631903866468E+01
  -2.791470304386369E+01  -2.791307184175013E+01  -2.791142526438726E+01
  -2.790976314222468E+01  -2.790808530407951E+01  -2.790639157713072E+01
  -2.790468178690154E+01  -2.790295575722764E+01  -2.790121331024233E+01
  -2.789945426636161E+01  -2.789767844427170E+01  -2.789588566090536E+01
  -2.789407573140362E+01  -2.789224846911983E+01  -2.789040368560761E+01
  -2.788854119057297E+01  -2.788666079186644E+01  -2.788476229546636E+01
  -2.788284550545766E+01  -2.788091022401857E+01  -2.787895625138459E+01
  -2.787698338582738E+01  -2.787499142364753E+01  -2.787298015915452E+01
  -2.787094938463028E+01  -2.786889889030834E+01  -2.786682846436457E+01
  -2.786473789289542E+01  -2.786262695988439E+01  -2.786049544717418E+01
  -2.785834313446230E+01  -2.785616979928133E+01  -2.785397521695087E+01
  -2.785175916056325E+01  -2.784952140097521E+01  -2.784726170677748E+01
  -2.784497984426058E+01  -2.784267557739048E+01  -2.784034866780006E+01
  -2.783799887475989E+01  -2.783562595514193E+01  -2.783322966340207E+01
  -2.783080975155393E+01  -2.782836596914756E+01  -2.782589806324450E+01
  -2.782340577838300E+01  -2.782088885655348E+01  -2.781834703717751E+01
  -2.781578005708949E+01  -2.781318765049335E+01  -2.781056954893503E+01
  -2.780792548129059E+01  -2.780525517373463E+01  -2.780255834970474E+01
  -2.779983472987209E+01  -2.779708403212501E+01  -2.779430597154040E+01
  -2.779150026034327E+01  -2.778866660788025E+01  -2.778580472060044E+01
  -2.778291430202590E+01  -2.777999505271071E+01  -2.777704667021327E+01
  -2.777406884907680E+01  -2.777106128079781E+01  -2.776802365378427E+01
  -2.776495565333290E+01  -2.776185696159756E+01  -2.775872725755753E+01
  -2.775556621699483E+01  -2.775237351244899E+01  -2.774914881318580E+01
  -2.774589178517729E+01  -2.774260209106836E+01  -2.773927939013377E+01
  -2.773592333824637E+01  -2.773253358785475E+01  -2.772910978794947E+01
  -2.772565158401996E+01  -2.772215861802222E+01  -2.771863052835324E+01
  -2.771506694981804E+01  -2.771146751358673E+01  -2.770783184715943E+01
  -2.770415957434205E+01  -2.770045031520955E+01  -2.769670368606253E+01
  -2.769291929939535E+01  -2.768909676386741E+01  -2.768523568426609E+01
  -2.768133566146325E+01  -2.767739629238418E+01  -2.767341716997364E+01
  -2.766939788315840E+01  -2.766533801681239E+01  -2.766123715171551E+01
  -2.765709486451827E+01  -2.765291072770867E+01  -2.764868430957595E+01
  -2.764441517416724E+01  -2.764010288125044E+01  -2.763574698628351E+01
  -2.763134704037608E+01  -2.762690259024572E+01  -2.762241317818037E+01
  -2.761787834200688E+01  -2.761329761505183E+01  -2.760867052609863E+01
  -2.760399659934821E+01  -2.759927535438591E+01  -2.759450630614778E+01
  -2.758968896487114E+01  -2.758482283605456E+01  -2.757990742043142E+01
  -2.757494221392829E+01  -2.756992670761734E+01  -2.756486038768374E+01
  -2.755974273538719E+01  -2.755457322702180E+01  -2.754935133388175E+01
  -2.754407652221560E+01  -2.753874825318740E+01  -2.753336598284493E+01
  -2.752792916207984E+01  -2.752243723658334E+01  -2.751688964680841E+01
  -2.751128582793654E+01  -2.750562520983920E+01  -2.749990721703444E+01
  -2.749413126864870E+01  -2.748829677838394E+01  -2.748240315448023E+01
  -2.747644979967230E+01  -2.747043611115179E+01  -2.746436148053674E+01
  -2.745822529383259E+01  -2.745202693139065E+01  -2.744576576787336E+01
  -2.743944117221977E+01  -2.743305250761134E+01  -2.742659913143226E+01
  -2.742008039523287E+01  -2.741349564469833E+01  -2.740684421961276E+01
  -2.740012545382644E+01  -2.739333867521870E+01  -2.738648320566287E+01
  -2.737955836099914E+01  -2.737256345100110E+01  -2.736549777933813E+01
  -2.735836064354601E+01  -2.735115133499914E+01  -2.734386913887916E+01
  -2.733651333414299E+01  -2.732908319349209E+01  -2.732157798334690E+01
  -2.731399696382113E+01  -2.730633938868979E+01  -2.729860450536163E+01
  -2.729079155485796E+01  -2.728289977178837E+01  -2.727492838432130E+01
  -2.726687661416151E+01  -2.725874367653196E+01  -2.725052878015063E+01
  -2.724223112720748E+01  -2.723384991334458E+01  -2.722538432764034E+01
  -2.721683355259282E+01  -2.720819676409917E+01  -2.719947313144165E+01
  -2.719066181727328E+01  -2.718176197760532E+01  -2.717277276179804E+01
  -2.716369331254464E+01  -2.715452276586229E+01  -2.714526025108829E+01
  -2.713590489087277E+01  -2.712645580116974E+01  -2.711691209123430E+01
  -2.710727286362217E+01  -2.709753721418827E+01  -2.708770423208680E+01
  -2.707777299977172E+01  -2.706774259300292E+01  -2.705761208085320E+01
  -2.704738052571229E+01  -2.703704698329593E+01  -2.702661050265840E+01
  -2.701607012620657E+01  -2.700542488971110E+01  -2.699467382232285E+01
  -2.698381594659490E+01  -2.697285027850097E+01  -2.696177582745665E+01
  -2.695059159634579E+01  -2.693929658154601E+01  -2.692788977295824E+01
  -2.691637015403943E+01  -2.690473670183323E+01  -2.689298838700542E+01
  -2.688112417388453E+01  -2.686914302050241E+01  -2.685704387863452E+01
  -2.684482569384528E+01  -2.683248740553797E+01  -2.682002794700630E+01
  -2.680744624548398E+01  -2.679474122220011E+01  -2.678191179244094E+01
  -2.676895686561006E+01  -2.675587534528949E+01  -2.674266612930740E+01
  -2.672932810980912E+01  -2.671586017332880E+01  -2.670226120086274E+01
  -2.668853006794714E+01  -2.667466564474127E+01  -2.666066679611155E+01
  -2.664653238171605E+01  -2.663226125609497E+01  -2.661785226876371E+01
  -2.660330426430928E+01  -2.658861608249098E+01  -2.657378655833905E+01
  -2.655881452226061E+01  -2.654369880015047E+01  -2.652843821350170E+01
  -2.651303157951895E+01  -2.649747771123611E+01  -2.648177541763939E+01
  -2.646592350379106E+01  -2.644992077095507E+01  -2.643376601672749E+01
  -2.641745803517196E+01  -2.640099561695639E+01  -2.638437754949053E+01
  -2.636760261706949E+01  -2.635066960102147E+01  -2.633357727985605E+01
  -2.631632442941471E+01  -2.629890982302676E+01  -2.628133223166816E+01
  -2.626359042412168E+01  -2.624568316714002E+01  -2.622760922561280E+01
  -2.620936736273556E+01  -2.619095634018205E+01  -2.617237491827889E+01
  -2.615362185618168E+01  -2.613469591205441E+01  -2.611559584325209E+01
  -2.609632040650574E+01  -2.607686835810648E+01  -2.605723845409448E+01
  -2.603742945045078E+01  -2.601744010328877E+01  -2.599726916904751E+01
  -2.597691540468743E+01  -2.595637756788805E+01  -2.593565441724687E+01
  -2.591474471247782E+01  -2.589364721461173E+01  -2.587236068619919E+01
  -2.585088389151258E+01  -2.582921559674831E+01  -2.580735457022990E+01
  -2.578529958261200E+01  -2.576304940708433E+01  -2.574060281957351E+01
  -2.571795859894642E+01  -2.569511552721258E+01  -2.567207238972519E+01
  -2.564882797538188E+01  -2.562538107682307E+01  -2.560173049062879E+01
  -2.557787501751522E+01  -2.555381346252823E+01  -2.552954463523377E+01
  -2.550506734990633E+01  -2.548038042571528E+01  -2.545548268690777E+01
  -2.543037296298703E+01  -2.540505008888728E+01  -2.537951290514660E+01
  -2.535376025807364E+01  -2.532779099990917E+01  -2.530160398898439E+01
  -2.527519808987314E+01  -2.524857217353933E+01  -2.522172511747710E+01
  -2.519465580584530E+01  -2.516736312959702E+01  -2.513984598660088E+01
  -2.511210328175479E+01  -2.508413392709345E+01  -2.505593684188795E+01
  -2.502751095273672E+01  -2.499885519364903E+01  -2.496996850611890E+01
  -2.494084983919070E+01  -2.491149814951573E+01  -2.488191240139946E+01
  -2.485209156683806E+01  -2.482203462554576E+01  -2.479174056497222E+01
  -2.476120838030963E+01  -2.473043707448834E+01  -2.469942565816180E+01
  -2.466817314968180E+01  -2.463667857506207E+01  -2.460494096792956E+01
  -2.457295936946577E+01  -2.454073282833687E+01  -2.450826040061187E+01
  -2.447554114966924E+01  -2.444257414609267E+01  -2.440935846755633E+01
  -2.437589319869786E+01  -2.434217743098071E+01  -2.430821026254659E+01
  -2.427399079805669E+01  -2.423951814852303E+01  -2.420479143113050E+01
  -2.416980976904892E+01  -2.413457229123657E+01  -2.409907813223587E+01
  -2.406332643196094E+01  -2.402731633547830E+01  -2.399104699278158E+01
  -2.395451755856076E+01  -2.391772719196731E+01  -2.388067505637536E+01
  -2.384336031914074E+01  -2.380578215135944E+01  -2.376793972762547E+01
  -2.372983222579023E+01  -2.369145882672499E+01  -2.365281871408778E+01
  -2.361391107409613E+01  -2.357473509530773E+01  -2.353528996841018E+01
  -2.349557488602271E+01  -2.345558904251120E+01  -2.341533163381816E+01
  -2.337480185731084E+01  -2.333399891164902E+01  -2.329292199667473E+01
  -2.325157031332676E+01  -2.320994306358156E+01  -2.316803945042365E+01
  -2.312585867784806E+01  -2.308339995089656E+01  -2.304066247573050E+01
  -2.299764545974319E+01  -2.295434811171354E+01  -2.291076964200349E+01
  -2.286690926280140E+01  -2.282276618841368E+01  -2.277833963560614E+01
  -2.273362882399727E+01  -2.268863297650422E+01  -2.264335131984293E+01
  -2.259778308508333E+01  -2.255192750825953E+01  -2.250578383103473E+01
  -2.245935130142056E+01  -2.241262917454920E+01  -2.236561671349592E+01
  -2.231831319014943E+01  -2.227071788612615E+01  -2.222283009372349E+01
  -2.217464911690598E+01  -2.212617427231784E+01  -2.207740489031229E+01
  -2.202834031598858E+01  -2.197897991022522E+01  -2.192932305069555E+01
  -2.187936913285066E+01  -2.182911757085349E+01  -2.177856779844408E+01
  -2.172771926971493E+01  -2.167657145977321E+01  -2.162512386526315E+01
  -2.157337600472117E+01  -2.152132741873163E+01  -2.146897766984991E+01
  -2.141632634225716E+01  -2.136337304110694E+01  -2.131011739152334E+01
  -2.125655903720605E+01  -2.120269763859715E+01  -2.114853287056140E+01
  -2.109406441953109E+01  -2.103929198006419E+01  -2.098421525076563E+01
  -2.092883392952052E+01  -2.087314770798965E+01  -2.081715626531983E+01
  -2.076085926102487E+01  -2.070425632699796E+01  -2.064734705862391E+01
  -2.059013100496712E+01  -2.053260765802297E+01  -2.047477644103599E+01
  -2.041663669590352E+01  -2.035818766970569E+01  -2.029942850042872E+01
  -2.024035820197712E+01  -2.018097564860755E+01  -2.012127955895697E+01
  -2.006126847988646E+01  -2.000094077041643E+01  -1.994029458609057E+01
  -1.987932786417636E+01  -1.981803831018627E+01  -1.975642338628923E+01
  -1.969448030227432E+01  -1.963220600982595E+01  -1.956959720097178E+01
  -1.950665031167122E+01  -1.944336153161346E+01  -1.937972682139300E+01
  -1.931574193831723E+01  -1.925140247227183E+01  -1.918670389251070E+01
  -1.912164160749564E+01  -1.905621103924668E+01  -1.899040771189992E+01
  -1.892422735693712E+01  -1.885766603598336E+01  -1.879072028071934E+01
  -1.872338725040740E+01  -1.865566490630869E+01  -1.858755220166657E+01
  -1.851904928510964E+01  -1.845015771440239E+01  -1.838088067646928E+01
  -1.831122320856398E+01  -1.824119241440877E+01  -1.817079766813524E+01
  -1.810005079799232E+01  -1.802896624112331E+01  -1.795756116032352E+01
  -1.788585551365192E+01  -1.781387206814128E+01  -1.774163634967470E+01
  -1.766917652239144E+01  -1.759652319273499E+01  -1.752370913541929E+01
  -1.745076894108022E+01  -1.737773858809466E+01  -1.730465494386609E+01
  -1.723155520365724E+01  -1.715847627766947E+01  -1.708545413942688E+01
  -1.701252315053555E+01  -1.693971537851498E+01  -1.686705992562777E+01
  -1.679458228746955E+01  -1.672230376053848E+01  -1.665024091807437E+01
  -1.657840517309412E+01  -1.650680244666595E+01  -1.643543295791106E+01
  -1.636429114982426E+01  -1.629336576159512E+01  -1.622264005356402E+01
  -1.615209218526635E+01  -1.608169574034303E+01  -1.601142038478040E+01
  -1.594123263751609E+01  -1.587109672557489E+01  -1.580097549032306E+01
  -1.573083130781372E+01  -1.566062698506351E+01  -1.559032659570303E+01
  -1.551989622269314E+01  -1.544930458232588E+01  -1.537852351187206E+01
  -1.530752831217256E+01  -1.523629794534301E+01  -1.516481509578220E+01
  -1.509306610922716E+01  -1.502104082930643E+01  -1.494873235377275E+01
  -1.487613673342428E+01  -1.480325263591905E+01  -1.473008099461397E+01
  -1.465662465962043E+01  -1.458288806487008E+01  -1.450887692146305E+01
  -1.443459794420662E+01  -1.436005861523916E+01  -1.428526698607201E+01
  -1.421023151733587E+01  -1.413496095398198E+01  -1.405946423261357E+01
  -1.398375041697076E+01  -1.390782865727380E+01  -1.383170816908439E+01
  -1.375539822751339E+01  -1.367890817290392E+01  -1.360224742452234E+01
  -1.352542549924477E+01  -1.344845203269819E+01  -1.337133680078244E+01
  -1.329408973994364E+01  -1.321672096497332E+01  -1.313924078346862E+01
  -1.306165970640390E+01  -1.298398845452371E+01  -1.290623796048221E+01
  -1.282841936682441E+01  -1.275054402003043E+01  -1.267262346093645E+01
  -1.259466941190523E+01  -1.251669376115222E+01  -1.243870854464629E+01
  -1.236072592599872E+01  -1.228275817473693E+01  -1.220481764333346E+01
  -1.212691674332812E+01  -1.204906792084683E+01  -1.197128363178307E+01
  -1.189357631687192E+01  -1.181595837685301E+01  -1.173844214788517E+01
  -1.166103987734807E+01  -1.158376370013907E+01  -1.150662561555200E+01
  -1.142963746480587E+01  -1.135281090927510E+01  -1.127615740946120E+01
  -1.119968820473598E+01  -1.112341429387875E+01  -1.104734641642517E+01
  -1.097149503484304E+01  -1.089587031754790E+01  -1.082048212277262E+01
  -1.074533998330476E+01  -1.067045309210954E+01  -1.059583028885832E+01
  -1.052148004738591E+01  -1.044741046410467E+01  -1.037362924740836E+01
  -1.030014370810249E+01  -1.022696075090471E+01  -1.015408686706199E+01
  -1.008152812813871E+01  -1.000929018103555E+01  -9.937378244302092E+00
  -9.865797105813851E+00  -9.794551121890718E+00  -9.723644217936572E+00
  -9.653079890686692E+00  -9.582861212155185E+00  -9.512990835377092E+00
  -9.443471002045550E+00  -9.374303552148316E+00  -9.305489935708078E+00
  -9.237031226733619E+00  -9.168928139490205E+00  -9.101181047193334E+00
  -9.033790003227960E+00  -8.966754764986959E+00  -8.900074820415252E+00
  -8.833749417332269E+00  -8.767777595585821E+00  -8.702158222070686E+00
  -8.636890028617273E+00  -8.571971652719803E+00  -8.507401681034205E+00
  -8.443178695524423E+00  -8.379301322081346E+00  -8.315768281372002E+00
  -8.252578441597874E+00  -8.189730872760389E+00  -8.127224901936362E+00
  -8.065060169108069E+00  -8.003236682099809E+00  -7.941754870959305E+00
  -7.880615640906273E+00  -7.819820420562677E+00  -7.759371206481227E+00
  -7.699270602442575E+00  -7.639521851225536E+00  -7.580128858082237E+00
  -7.521096203473704E+00  -7.462429144152336E+00  -7.404133600865050E+00
  -7.346216130598735E+00  -7.288683882002423E+00  -7.231544532377334E+00
  -7.174806204801789E+00  -7.118477364112384E+00  -7.062566690648944E+00
  -7.007082930881956E+00  -6.952034724266244E+00  -6.897430405893433E+00
  -6.843277784732730E+00  -6.789583897441062E+00  -6.736354737880733E+00
  -6.683594962596261E+00  -6.631307572571316E+00  -6.579493571631468E+00
  -6.528151601908362E+00  -6.477277556897156E+00  -6.426864172919896E+00
  -6.376900600387997E+00  -6.327371957334488E+00  -6.278258869514297E+00
  -6.229537004273894E+00  -6.181176609757999E+00  -6.133142077300729E+00
  -6.085391553511111E+00  -6.037876640055254E+00  -5.990542233778870E+00
  -5.943326577660808E+00  -5.896161613721095E+00  -5.848973751261567E+00
  -5.801685185439860E+00  -5.754215918466161E+00  -5.706486643170551E+00
  -5.658422638872551E+00  -5.609958793168089E+00  -5.561045790239183E+00
  -5.511657387124505E+00  -5.461798528187409E+00  -5.411513826520686E+00
  -5.360895683418735E+00  -5.310091054478191E+00  -5.259305653832957E+00
  -5.208804283941007E+00  -5.158906062034037E+00  -5.109973649976093E+00
  -5.062396210656704E+00  -5.016566679151589E+00  -4.972854941553786E+00
  -4.931579475933725E+00  -4.892980702773651E+00  -4.857199503648947E+00
  -4.824263963814625E+00  -4.794086379318514E+00  -4.766471102275101E+00
  -4.741132169430190E+00  -4.717718217277620E+00  -4.695841240141457E+00
  -4.675105475596316E+00  -4.655133107942351E+00  -4.635584403422007E+00
  -4.616171066200810E+00  -4.596662752582411E+00  -4.576887586003636E+00
  -4.556728066060212E+00  -4.536113956305904E+00  -4.515013641598218E+00
  -4.493425170376338E+00  -4.471367849055529E+00  -4.448874916764607E+00
  -4.425987541243965E+00  -4.402750168060567E+00  -4.379207121914489E+00
  -4.355400285653326E+00  -4.331367656782792E+00  -4.307142584713110E+00
  -4.282753512253882E+00  -4.258224072514157E+00  -4.233573421346231E+00
  -4.208816712365432E+00  -4.183965644805562E+00  -4.159029033592941E+00
  -4.134013366243187E+00  -4.108923323001048E+00  -4.083762245638114E+00
  -4.058532547047538E+00  -4.033236058714562E+00  -4.007874316685120E+00
  -3.982448789116619E+00  -3.956961050121050E+00  -3.931412905591218E+00
  -3.905806477189449E+00  -3.880144250794936E+00  -3.854429095553032E+00
  -3.828664259323099E+00  -3.802853345847222E+00  -3.777000278409989E+00
  -3.751109254181771E+00  -3.725184692872369E+00  -3.699231182764266E+00
  -3.673253426646683E+00  -3.647256189694439E+00  -3.621244250947977E+00
  -3.595222359681693E+00  -3.569195197629683E+00  -3.543167347779022E+00
  -3.517143270226200E+00  -3.491127285417984E+00  -3.465123564951999E+00
  -3.439136129995537E+00  -3.413168857282873E+00  -3.387225492564089E+00
  -3.361309671303340E+00  -3.335424946351707E+00  -3.309574822243504E+00
  -3.283762795689245E+00  -3.257992401754912E+00  -3.232267265124132E+00
  -3.206591155744107E+00  -3.180968048050848E+00  -3.155402182855110E+00
  -3.129898130859925E+00  -3.104460856668833E+00  -3.079095782034618E+00
  -3.053808847128602E+00  -3.028606567701483E+00  -3.003496087935530E+00
  -2.978485227271291E+00  -2.953582517503773E+00  -2.928797231240301E+00
  -2.904139400101116E+00  -2.879619820046396E+00  -2.855250043684250E+00
  -2.831042358504525E+00  -2.807009750430581E+00  -2.783165852371881E+00
  -2.759524877774846E+00  -2.736101539504508E+00  -2.712910954729142E+00
  -2.689968536815172E+00  -2.667289875560943E+00  -2.644890607392408E+00
  -2.622786277402644E+00  -2.600992195287720E+00  -2.579523287685453E+00
  -2.558393948847019E+00  -2.537617892189287E+00  -2.517208005713229E+00
  -2.497176212980735E+00  -2.477533342018838E+00  -2.458289004496978E+00
  -2.439451486930166E+00  -2.421027655628655E+00  -2.403022876842072E+00
  -2.385440953284259E+00  -2.368284077955912E+00  -2.351552805910675E+00
  -2.335246044339501E+00  -2.319361061085934E+00  -2.303893511450441E+00
  -2.288837482898910E+00  -2.274185557065611E+00  -2.259928888223489E+00
  -2.246057297195266E+00  -2.232559379495588E+00  -2.219422626321031E+00
  -2.206633556850533E+00  -2.194177860175833E+00  -2.182040545052559E+00
  -2.170206095556757E+00  -2.158658630632808E+00  -2.147382065443892E+00
  -2.136360272382372E+00  -2.125577239562556E+00  -2.115017224607776E+00
  -2.104664901561311E+00  -2.094505498791795E+00  -2.084524925831400E+00
  -2.074709887190202E+00  -2.065047981312655E+00  -2.055527782998131E+00
  -2.046138907794842E+00  -2.036872057085238E+00  -2.027719042822759E+00
  -2.018672791145028E+00  -2.009727324383262E+00  -2.000877721319978E+00
  -1.992120055905499E+00  -1.983451315048288E+00  -1.974869296549552E+00
  -1.966372488758838E+00  -1.957959934104657E+00  -1.949631079299606E+00
  -1.941385615740941E+00  -1.933223314426574E+00  -1.925143860555122E+00
  -1.917146693859355E+00  -1.909230861584227E+00  -1.901394891783942E+00
  -1.893636695183994E+00  -1.885953504107768E+00  -1.878341856752349E+00
  -1.870797634263994E+00  -1.863316156465165E+00  -1.855892339596388E+00
  -1.848520916021201E+00  -1.841196711545008E+00  -1.833914970990730E+00
  -1.826671717288443E+00  -1.819464124035074E+00  -1.812290876865445E+00
  -1.805152495714685E+00  -1.798051588785114E+00  -1.790993010305916E+00
  -1.783983898306274E+00  -1.777033575613677E+00  -1.770153306784772E+00
  -1.763355914941384E+00  -1.756655274478038E+00  -1.750065707082349E+00
  -1.743601318304038E+00  -1.737275318327662E+00  -1.731099373948370E+00
  -1.725083037490216E+00  -1.719233292130179E+00  -1.713554244839045E+00
  -1.708046986061754E+00  -1.702709621509376E+00  -1.697537468449307E+00
  -1.692523396485029E+00  -1.687658282995396E+00  -1.682931546708924E+00
  -1.678331719755841E+00  -1.673847018970864E+00  -1.669465880830665E+00
  -1.665177430532473E+00  -1.660971863507915E+00  -1.656840726196934E+00
  -1.652777091325934E+00  -1.648775630516184E+00  -1.644832593266770E+00
  -1.640945705910406E+00  -1.637114006941217E+00  -1.633337636255735E+00
  -1.629617595568423E+00  -1.625955495865086E+00  -1.622353305594987E+00
  -1.618813110706855E+00  -1.615336894896465E+00  -1.611926346238167E+00
  -1.608582691507510E+00  -1.605306562348131E+00  -1.602097893903983E+00
  -1.598955848385694E+00  -1.595878766135614E+00  -1.592864142282777E+00
  -1.589908622658763E+00  -1.587008017740301E+00  -1.584157331419220E+00
  -1.581350801966575E+00  -1.578581952853650E+00  -1.575843651411399E+00
  -1.573128173617630E+00  -1.570427273587931E+00  -1.567732256598499E+00
  -1.565034054675339E+00  -1.562323303950293E+00  -1.559590423105440E+00
  -1.556825692308914E+00  -1.554019332098789E+00  -1.551161581691077E+00
  -1.548242776191515E+00  -1.545253422181757E+00  -1.542184271132894E+00
  -1.539026390082895E+00  -1.535771229002928E+00  -1.532410684274791E+00
  -1.528937157711506E+00  -1.525343610579995E+00  -1.521623612123930E+00
  -1.517771382141787E+00  -1.513781827246867E+00  -1.509650570519105E+00
  -1.505373974352466E+00  -1.500949156401744E+00  -1.496373998635203E+00
  -1.491647149604350E+00  -1.486768020139872E+00  -1.481736772775532E+00
  -1.476554305285309E+00  -1.471222228789683E+00  -1.465742840945806E+00
  -1.460119094779609E+00  -1.454354563747757E+00  -1.448453403633813E+00
  -1.442420311884208E+00  -1.436260484980119E+00  -1.429979574420959E+00
  -1.423583641865133E+00  -1.417079113936710E+00  -1.410472737164075E+00
  -1.403771533469944E+00  -1.396982756582889E+00  -1.390113849691754E+00
  -1.383172404613927E+00  -1.376166122701124E+00  -1.369102777660760E+00
  -1.361990180428166E+00  -1.354836146185967E+00  -1.347648463591326E+00
  -1.340434866240061E+00  -1.333203006369510E+00  -1.325960430777722E+00
  -1.318714558915365E+00  -1.311472663100073E+00  -1.304241850744479E+00
  -1.297029048606249E+00  -1.289840988860214E+00  -1.282684198082567E+00
  -1.275564981925747E+00  -1.268489423704920E+00  -1.261463371885057E+00
  -1.254492435254451E+00  -1.247581978134927E+00  -1.240737116752940E+00
  -1.233962716683659E+00  -1.227263391285043E+00  -1.220643501036797E+00
  -1.214107153704527E+00  -1.207658205253255E+00  -1.201300261439436E+00
  -1.195036680015186E+00  -1.188870573483002E+00  -1.182804812343421E+00
  -1.176842028782742E+00  -1.170984620751102E+00  -1.165234756386070E+00
  -1.159594378739534E+00  -1.154065210769404E+00  -1.148648760560572E+00
  -1.143346326742367E+00  -1.138159004072147E+00  -1.133087689157263E+00
  -1.128133086288774E+00  -1.123295713363277E+00  -1.118575907869475E+00
  -1.113973832918022E+00  -1.109489483293806E+00  -1.105122691510710E+00
  -1.100873133849064E+00  -1.096740336356403E+00  -1.092723680791355E+00
  -1.088822410492632E+00  -1.085035636142977E+00  -1.081362342384243E+00
  -1.077801389455218E+00  -1.074351524383686E+00  -1.071011382166331E+00
  -1.067779491679007E+00  -1.064654280355170E+00  -1.061634077960983E+00
  -1.058717131216320E+00  -1.055901508214333E+00  -1.053185747579212E+00
  -1.050560009149871E+00  -9.999927646359135E-01  -1.000000162986828E+00
  -1.000000142445756E+00  -1.000000119007075E+00  -1.000000099241388E+00
  -1.000000082603381E+00  -1.000000068624506E+00  -1.000000056902028E+00
  -1.000000047090470E+00  -1.000000038893993E+00  -1.000000031494864E+00
  -1.000000025838555E+00  -1.000000021144533E+00  -1.000000017257241E+00
  -1.000000014044770E+00  -1.000000011395604E+00  -1.000000009215645E+00
  -1.000000007425661E+00  -1.000000005959083E+00  -1.000000004760171E+00
  -1.000000003782706E+00  -1.000000002986807E+00  -1.000000002340542E+00
  -1.000000001816984E+00  -1.000000001393820E+00  -1.000000001052608E+00
  -1.000000000778100E+00  -1.000000000557820E+00  -1.000000000381472E+00
  -1.000000000240637E+00  -1.000000000128439E+00  -1.000000000039281E+00
  -9.999999999685956E-01  -9.999999999127118E-01  -9.999999998686337E-01
  -9.999999998339435E-01  -9.999999998067292E-01  -9.999999997854481E-01
  -9.999999997688264E-01  -9.999999997558785E-01  -9.999999997458298E-01
  -9.999999997380459E-01  -9.999999997320250E-01  -9.999999997273648E-01
  -9.999999997237869E-01  -9.999999997210536E-01  -9.999999997189510E-01
  -9.999999997173483E-01  -9.999999997161216E-01  -9.999999997151827E-01
  -9.999999997144710E-01  -9.999999997139024E-01  -9.999999997134850E-01
  -9.999999997131617E-01  -9.999999997129148E-01  -9.999999997127245E-01
  -9.999999997125669E-01  -9.999999997124482E-01  -9.999999997123502E-01
  -9.999999997122729E-01  -9.999999997121832E-01  -9.999999997121218E-01
  -9.999999997120715E-01  -9.999999997120210E-01  -9.999999997119811E-01
  -9.999999997119442E-01  -9.999999997119087E-01  -9.999999997118711E-01
  -9.999999997118167E-01  -9.999999997117873E-01  -9.999999997117570E-01
  -9.999999997117249E-01  -9.999999997116953E-01  -9.999999997116626E-01
  -9.999999997116360E-01  -9.999999997116116E-01  -9.999999997115561E-01
  -9.999999997115231E-01  -9.999999997115018E-01  -9.999999997114764E-01
  -9.999999997114504E-01  -9.999999997114283E-01  -9.999999997114004E-01
  -9.999999997113792E-01  -9.999999997113556E-01  -9.999999997113075E-01
  -9.999999997112859E-01  -9.999999997112569E-01  -9.999999997112435E-01
  -9.999999997112173E-01  -9.999999997111982E-01  -9.999999997111723E-01
  -9.999999997111531E-01  -9.999999997111115E-01  -9.999999997110876E-01
  -9.999999997110701E-01  -9.999999997110561E-01  -9.999999997110414E-01
  -9.999999997110219E-01  -9.999999997110057E-01  -9.999999997109894E-01
  -9.999999997109550E-01  -9.999999997109408E-01  -9.999999997109239E-01
  -9.999999997109148E-01  -9.999999997108984E-01  -9.999999997108912E-01
  -9.999999997108763E-01  -9.999999997108658E-01  -9.999999997108581E-01
  -9.999999997108271E-01  -9.999999997108159E-01  -9.999999997108120E-01
  -9.999999997108008E-01  -9.999999997108030E-01  -9.999999997107923E-01
  -9.999999997107863E-01  -9.999999997107770E-01  -9.999999997107502E-01
  -9.999999997107483E-01  -9.999999997107428E-01  -9.999999997107402E-01
  -9.999999997107395E-01
      </PP_GIPAW_VLOCAL_AE>
      <PP_GIPAW_VLOCAL_PS size="1525">
  -2.523975713803790E-04  -2.549342091443897E-04  -2.574963405417606E-04
  -2.600842217877672E-04  -2.626981116726899E-04  -2.653382715876954E-04
  -2.680049655509759E-04  -2.706984602341498E-04  -2.734190249889298E-04
  -2.761669318740585E-04  -2.789424556825145E-04  -2.817458739689921E-04
  -2.845774670776551E-04  -2.874375181701748E-04  -2.903263132540433E-04
  -2.932441412111770E-04  -2.961912938268026E-04  -2.991680658186376E-04
  -3.021747548663619E-04  -3.052116616413865E-04  -3.082790898369189E-04
  -3.113773461983351E-04  -3.145067405538529E-04  -3.176675858455164E-04
  -3.208601981604880E-04  -3.240848967626600E-04  -3.273420041245799E-04
  -3.306318459596981E-04  -3.339547512549402E-04  -3.373110523036040E-04
  -3.407010847385916E-04  -3.441251875659716E-04  -3.475837031988805E-04
  -3.510769774917631E-04  -3.546053597749598E-04  -3.581692028896395E-04
  -3.617688632230838E-04  -3.654047007443254E-04  -3.690770790401462E-04
  -3.727863653514365E-04  -3.765329306099184E-04  -3.803171494752393E-04
  -3.841394003724399E-04  -3.880000655297951E-04  -3.918995310170378E-04
  -3.958381867839658E-04  -3.998164266994391E-04  -4.038346485907632E-04
  -4.078932542834772E-04  -4.119926496415311E-04  -4.161332446078775E-04
  -4.203154532454634E-04  -4.245396937786382E-04  -4.288063886349756E-04
  -4.331159644875152E-04  -4.374688522974354E-04  -4.418654873571440E-04
  -4.463063093338108E-04  -4.507917623133338E-04  -4.553222948447496E-04
  -4.598983599850856E-04  -4.645204153446712E-04  -4.691889231328923E-04
  -4.739043502044187E-04  -4.786671681058873E-04  -4.834778531230570E-04
  -4.883368863284388E-04  -4.932447536294017E-04  -4.982019458167663E-04
  -5.032089586138829E-04  -5.082662927262024E-04  -5.133744538913517E-04
  -5.185339529297032E-04  -5.237453057954610E-04  -5.290090336282538E-04
  -5.343256628052519E-04  -5.396957249938039E-04  -5.451197572046025E-04
  -5.505983018453905E-04  -5.561319067751956E-04  -5.617211253591232E-04
  -5.673665165236898E-04  -5.730686448127153E-04  -5.788280804437808E-04
  -5.846453993652492E-04  -5.905211833138593E-04  -5.964560198729050E-04
  -6.024505025309853E-04  -6.085052307413628E-04  -6.146208099819041E-04
  -6.207978518156287E-04  -6.270369739518689E-04  -6.333388003080360E-04
  -6.397039610720178E-04  -6.461330927651964E-04  -6.526268383060965E-04
  -6.591858470746855E-04  -6.658107749773046E-04  -6.725022845122668E-04
  -6.792610448360998E-04  -6.860877318304685E-04  -6.929830281697620E-04
  -6.999476233893616E-04  -7.069822139545917E-04  -7.140875033303701E-04
  -7.212642020515566E-04  -7.285130277940036E-04  -7.358347054463266E-04
  -7.432299671823918E-04  -7.506995525345348E-04  -7.582442084675176E-04
  -7.658646894532192E-04  -7.735617575460881E-04  -7.813361824593484E-04
  -7.891887416419707E-04  -7.971202203564168E-04  -8.051314117571680E-04
  -8.132231169700396E-04  -8.213961451722960E-04  -8.296513136735693E-04
  -8.379894479975899E-04  -8.464113819647346E-04  -8.549179577754210E-04
  -8.635100260943209E-04  -8.721884461354225E-04  -8.809540857479645E-04
  -8.898078215032110E-04  -8.987505387821188E-04  -9.077831318638663E-04
  -9.169065040152859E-04  -9.261215675811997E-04  -9.354292440756445E-04
  -9.448304642740215E-04  -9.543261683061868E-04  -9.639173057504591E-04
  -9.736048357285715E-04  -9.833897270015977E-04  -9.932729580668174E-04
  -1.003255517255575E-03  -1.013338402832109E-03  -1.023522623093376E-03
  -1.033809196469889E-03  -1.044199151627560E-03  -1.054693527570564E-03
  -1.065293373745238E-03  -1.075999750145036E-03  -1.086813727416516E-03
  -1.097736386966421E-03  -1.108768821069806E-03  -1.119912132979273E-03
  -1.131167437035301E-03  -1.142535858777676E-03  -1.154018535058041E-03
  -1.165616614153606E-03  -1.177331255881930E-03  -1.189163631716953E-03
  -1.201114924906131E-03  -1.213186330588723E-03  -1.225379055915370E-03
  -1.237694320168758E-03  -1.250133354885580E-03  -1.262697403979675E-03
  -1.275387723866414E-03  -1.288205583588369E-03  -1.301152264942192E-03
  -1.314229062606806E-03  -1.327437284272870E-03  -1.340778250773566E-03
  -1.354253296216662E-03  -1.367863768117924E-03  -1.381611027535891E-03
  -1.395496449207954E-03  -1.409521421687860E-03  -1.423687347484536E-03
  -1.437995643202373E-03  -1.452447739682858E-03  -1.467045082147694E-03
  -1.481789130343283E-03  -1.496681358686735E-03  -1.511723256413301E-03
  -1.526916327725277E-03  -1.542262091942462E-03  -1.557762083654064E-03
  -1.573417852872168E-03  -1.589230965186747E-03  -1.605203001922203E-03
  -1.621335560295533E-03  -1.637630253576006E-03  -1.654088711246528E-03
  -1.670712579166597E-03  -1.687503519736848E-03  -1.704463212065325E-03
  -1.721593352135401E-03  -1.738895652975346E-03  -1.756371844829682E-03
  -1.774023675332153E-03  -1.791852909680508E-03  -1.809861330813045E-03
  -1.828050739586900E-03  -1.846422954958085E-03  -1.864979814163460E-03
  -1.883723172904409E-03  -1.902654905532408E-03  -1.921776905236518E-03
  -1.941091084232641E-03  -1.960599373954781E-03  -1.980303725248144E-03
  -2.000206108564278E-03  -2.020308514158129E-03  -2.040612952286986E-03
  -2.061121453411585E-03  -2.081836068399135E-03  -2.102758868728395E-03
  -2.123891946696822E-03  -2.145237415629847E-03  -2.166797410092152E-03
  -2.188574086101099E-03  -2.210569621342496E-03  -2.232786215388196E-03
  -2.255226089916057E-03  -2.277891488932303E-03  -2.300784678995672E-03
  -2.323907949444269E-03  -2.347263612624428E-03  -2.370854004121893E-03
  -2.394681482995464E-03  -2.418748432012942E-03  -2.443057257889249E-03
  -2.467610391527209E-03  -2.492410288260716E-03  -2.517459428100010E-03
  -2.542760315980040E-03  -2.568315482010624E-03  -2.594127481729679E-03
  -2.620198896358698E-03  -2.646532333060868E-03  -2.673130425201789E-03
  -2.699995832612841E-03  -2.727131241857131E-03  -2.754539366498281E-03
  -2.782222947371499E-03  -2.810184752858013E-03  -2.838427579161618E-03
  -2.866954250588469E-03  -2.895767619829503E-03  -2.924870568245707E-03
  -2.954266006156136E-03  -2.983956873129051E-03  -3.013946138275913E-03
  -3.044236800548233E-03  -3.074831889037463E-03  -3.105734463278090E-03
  -3.136947613553150E-03  -3.168474461203632E-03  -3.200318158940654E-03
  -3.232481891160545E-03  -3.264968874263261E-03  -3.297782356974244E-03
  -3.330925620669091E-03  -3.364401979701729E-03  -3.398214781736045E-03
  -3.432367408080390E-03  -3.466863274025872E-03  -3.501705829187803E-03
  -3.536898557850763E-03  -3.572444979316974E-03  -3.608348648258061E-03
  -3.644613155070917E-03  -3.681242126236599E-03  -3.718239224682501E-03
  -3.755608150149511E-03  -3.793352639561096E-03  -3.831476467397909E-03
  -3.869983446074370E-03  -3.908877426320284E-03  -3.948162297566427E-03
  -3.987841988332303E-03  -4.027920466620356E-03  -4.068401740311579E-03
  -4.109289857567243E-03  -4.150588907233212E-03  -4.192303019248477E-03
  -4.234436365059451E-03  -4.276993158035555E-03  -4.319977653891777E-03
  -4.363394151113137E-03  -4.407246991385881E-03  -4.451540560030617E-03
  -4.496279286440795E-03  -4.541467644526637E-03  -4.587110153161375E-03
  -4.633211376634222E-03  -4.679775925105580E-03  -4.726808455069329E-03
  -4.774313669817658E-03  -4.822296319911590E-03  -4.870761203656052E-03
  -4.919713167579844E-03  -4.969157106920158E-03  -5.019097966112067E-03
  -5.069540739283297E-03  -5.120490470752787E-03  -5.171952255536835E-03
  -5.223931239856253E-03  -5.276432621653047E-03  -5.329461651109108E-03
  -5.383023631171900E-03  -5.437123918083040E-03  -5.491767921917444E-03
  -5.546961107119823E-03  -5.602708993055407E-03  -5.659017154559329E-03
  -5.715891222494446E-03  -5.773336884315640E-03  -5.831359884636427E-03
  -5.889966025805341E-03  -5.949161168484956E-03  -6.008951232238894E-03
  -6.069342196123492E-03  -6.130340099285455E-03  -6.191951041566006E-03
  -6.254181184110449E-03  -6.317036749985406E-03  -6.380524024798885E-03
  -6.444649357332363E-03  -6.509419160172388E-03  -6.574839910352591E-03
  -6.640918150003785E-03  -6.707660487003642E-03  -6.775073595641894E-03
  -6.843164217285859E-03  -6.911939161053928E-03  -6.981405304498389E-03
  -7.051569594291071E-03  -7.122439046919453E-03  -7.194020749388013E-03
  -7.266321859926494E-03  -7.339349608705767E-03  -7.413111298561863E-03
  -7.487614305724923E-03  -7.562866080558246E-03  -7.638874148302700E-03
  -7.715646109828185E-03  -7.793189642395011E-03  -7.871512500420423E-03
  -7.950622516255546E-03  -8.030527600967242E-03  -8.111235745131284E-03
  -8.192755019629050E-03  -8.275093576455540E-03  -8.358259649536098E-03
  -8.442261555546135E-03  -8.527107694746650E-03  -8.612806551823796E-03
  -8.699366696732783E-03  -8.786796785561417E-03  -8.875105561391381E-03
  -8.964301855171809E-03  -9.054394586608349E-03  -9.145392765049137E-03
  -9.237305490387896E-03  -9.330141953974356E-03  -9.423911439531430E-03
  -9.518623324085550E-03  -9.614287078903451E-03  -9.710912270440917E-03
  -9.808508561298382E-03  -9.907085711185412E-03  -1.000665357790026E-02
  -1.010722211831229E-02  -1.020880138935821E-02  -1.031140154905048E-02
  -1.041503285748865E-02  -1.051970567789032E-02  -1.062543047762706E-02
  -1.073221782927350E-02  -1.084007841164550E-02  -1.094902301088512E-02
  -1.105906252155098E-02  -1.117020794768675E-02  -1.128247040392654E-02
  -1.139586111660682E-02  -1.151039142489417E-02  -1.162607278192196E-02
  -1.174291675591152E-02  -1.186093503135797E-02  -1.198013941020295E-02
  -1.210054181296758E-02  -1.222215427999375E-02  -1.234498897263638E-02
  -1.246905817446144E-02  -1.259437429249702E-02  -1.272094985845234E-02
  -1.284879752999728E-02  -1.297793009200684E-02  -1.310836045783734E-02
  -1.324010167063836E-02  -1.337316690463937E-02  -1.350756946647441E-02
  -1.364332279651072E-02  -1.378044047019735E-02  -1.391893619941870E-02
  -1.405882383385535E-02  -1.420011736238892E-02  -1.434283091449440E-02
  -1.448697876164520E-02  -1.463257531874453E-02  -1.477963514556689E-02
  -1.492817294821821E-02  -1.507820358060603E-02  -1.522974204591818E-02
  -1.538280349812697E-02  -1.553740324350580E-02  -1.569355674215025E-02
  -1.585127960955214E-02  -1.601058761813024E-02  -1.617149669880008E-02
  -1.633402294262135E-02  -1.649818260235708E-02  -1.666399209409391E-02
  -1.683146799892223E-02  -1.700062706457316E-02  -1.717148620711579E-02
  -1.734406251259916E-02  -1.751837323875324E-02  -1.769443581682323E-02
  -1.787226785323687E-02  -1.805188713133260E-02  -1.823331161318934E-02
  -1.841655944139262E-02  -1.860164894087809E-02  -1.878859862076834E-02
  -1.897742717618813E-02  -1.916815349013216E-02  -1.936079663538632E-02
  -1.955537587644948E-02  -1.975191067140583E-02  -1.995042067388148E-02
  -2.015092573503874E-02  -2.035344590555915E-02  -2.055800143764089E-02
  -2.076461278699350E-02  -2.097330061493356E-02  -2.118408579041860E-02
  -2.139698939212817E-02  -2.161203271060621E-02  -2.182923725036138E-02
  -2.204862473203361E-02  -2.227021709455260E-02  -2.249403649734106E-02
  -2.272010532252861E-02  -2.294844617717446E-02  -2.317908189555764E-02
  -2.341203554145090E-02  -2.364733041040549E-02  -2.388499003212207E-02
  -2.412503817275270E-02  -2.436749883726734E-02  -2.461239627196573E-02
  -2.485975496681648E-02  -2.510959965789732E-02  -2.536195532987208E-02
  -2.561684721847499E-02  -2.587430081314575E-02  -2.613434185947910E-02
  -2.639699636177779E-02  -2.666229058569431E-02  -2.693025106087188E-02
  -2.720090458362181E-02  -2.747427821951407E-02  -2.775039930609980E-02
  -2.802929545575467E-02  -2.831099455832031E-02  -2.859552478387921E-02
  -2.888291458574913E-02  -2.917319270316794E-02  -2.946638816416404E-02
  -2.976253028853095E-02  -3.006164869071278E-02  -3.036377328282033E-02
  -3.066893427758470E-02  -3.097716219132309E-02  -3.128848784704726E-02
  -3.160294237762422E-02  -3.192055722882576E-02  -3.224136416234565E-02
  -3.256539525907907E-02  -3.289268292247854E-02  -3.322325988160137E-02
  -3.355715919439025E-02  -3.389441425106820E-02  -3.423505877740675E-02
  -3.457912683813295E-02  -3.492665284035743E-02  -3.527767153697472E-02
  -3.563221803016545E-02  -3.599032777487120E-02  -3.635203658228255E-02
  -3.671738062358324E-02  -3.708639643353525E-02  -3.745912091405614E-02
  -3.783559133790221E-02  -3.821584535238779E-02  -3.859992098324597E-02
  -3.898785663836093E-02  -3.937969111160644E-02  -3.977546358676318E-02
  -4.017521364144068E-02  -4.057898125096581E-02  -4.098680679235969E-02
  -4.139873104854742E-02  -4.181479521236149E-02  -4.223504089056700E-02
  -4.265951010802845E-02  -4.308824531200516E-02  -4.352128937644175E-02
  -4.395868560602051E-02  -4.440047774067458E-02  -4.484670996018320E-02
  -4.529742688810386E-02  -4.575267359630506E-02  -4.621249560996060E-02
  -4.667693891176668E-02  -4.714604994627361E-02  -4.761987562499818E-02
  -4.809846333101526E-02  -4.858186092339502E-02  -4.907011674228758E-02
  -4.956327961364982E-02  -5.006139885422126E-02  -5.056452427647298E-02
  -5.107270619321538E-02  -5.158599542295685E-02  -5.210444329524368E-02
  -5.262810165536679E-02  -5.315702286940324E-02  -5.369125982988368E-02
  -5.423086596106520E-02  -5.477589522394193E-02  -5.532640212185814E-02
  -5.588244170613323E-02  -5.644406958112948E-02  -5.701134190993037E-02
  -5.758431542028348E-02  -5.816304741005103E-02  -5.874759575298087E-02
  -5.933801890444272E-02  -5.993437590724821E-02  -6.053672639746030E-02
  -6.114513061047284E-02  -6.175964938736282E-02  -6.238034418058670E-02
  -6.300727706006902E-02  -6.364051071963796E-02  -6.428010848318552E-02
  -6.492613431104180E-02  -6.557865280625781E-02  -6.623772922112862E-02
  -6.690342946390918E-02  -6.757582010525028E-02  -6.825496838476680E-02
  -6.894094221783846E-02  -6.963381020236381E-02  -7.033364162554763E-02
  -7.104050647127744E-02  -7.175447542683412E-02  -7.247561988935666E-02
  -7.320401197385668E-02  -7.393972452034783E-02  -7.468283110057261E-02
  -7.543340602588570E-02  -7.619152435433268E-02  -7.695726189818038E-02
  -7.773069523194069E-02  -7.851190169974030E-02  -7.930095942280635E-02
  -8.009794730733731E-02  -8.090294505276724E-02  -8.171603315976611E-02
  -8.253729293781277E-02  -8.336680651322333E-02  -8.420465683802819E-02
  -8.505092769826995E-02  -8.590570372168704E-02  -8.676907038631575E-02
  -8.764111402949290E-02  -8.852192185639218E-02  -8.941158194848081E-02
  -9.031018327247868E-02  -9.121781568925010E-02  -9.213456996257705E-02
  -9.306053776864102E-02  -9.399581170526441E-02  -9.494048530051574E-02
  -9.589465302221886E-02  -9.685841028800705E-02  -9.783185347437731E-02
  -9.881507992623957E-02  -9.980818796705350E-02  -1.008112769084051E-01
  -1.018244470600870E-01  -1.028477997398383E-01  -1.038814372835453E-01
  -1.049254630558067E-01  -1.059799814599745E-01  -1.070450979489111E-01
  -1.081209190350063E-01  -1.092075523008512E-01  -1.103051064106041E-01
  -1.114136911205167E-01  -1.125334172899954E-01  -1.136643968926509E-01
  -1.148067430271823E-01  -1.159605699287743E-01  -1.171259929809331E-01
  -1.183031287268524E-01  -1.194920948809659E-01  -1.206930103407731E-01
  -1.219059951986379E-01  -1.231311707538726E-01  -1.243686595247454E-01
  -1.256185852607863E-01  -1.268810729555745E-01  -1.281562488589770E-01
  -1.294442404890871E-01  -1.307451766459057E-01  -1.320591874240867E-01
  -1.333864042253939E-01  -1.347269597723862E-01  -1.360809881213279E-01
  -1.374486246756765E-01  -1.388300062001274E-01  -1.402252708339263E-01
  -1.416345581040957E-01  -1.430580089398477E-01  -1.444957656870918E-01
  -1.459479721225961E-01  -1.474147734677845E-01  -1.488963164032130E-01
  -1.503927490839178E-01  -1.519042211539601E-01  -1.534308837612849E-01
  -1.549728895729385E-01  -1.565303927901885E-01  -1.581035491639466E-01
  -1.596925160103706E-01  -1.612974522265336E-01  -1.629185183066967E-01
  -1.645558763585589E-01  -1.662096901184823E-01  -1.678801249679296E-01
  -1.695673479508530E-01  -1.712715277901815E-01  -1.729928349043101E-01
  -1.747314414239684E-01  -1.764875212102369E-01  -1.782612498717882E-01
  -1.800528047816958E-01  -1.818623650953367E-01  -1.836901117686640E-01
  -1.855362275766318E-01  -1.874008971311513E-01  -1.892843068990308E-01
  -1.911866452209005E-01  -1.931081023307155E-01  -1.950488703738939E-01
  -1.970091434266815E-01  -1.989891175161255E-01  -2.009889906391901E-01
  -2.030089627826799E-01  -2.050492359427296E-01  -2.071100141456678E-01
  -2.091915034691510E-01  -2.112939120608777E-01  -2.134174501602707E-01
  -2.155623301205700E-01  -2.177287664278987E-01  -2.199169757237363E-01
  -2.221271768277108E-01  -2.243595907584786E-01  -2.266144407555403E-01
  -2.288919523008249E-01  -2.311923531430148E-01  -2.335158733201323E-01
  -2.358627451811578E-01  -2.382332034107672E-01  -2.406274850511961E-01
  -2.430458295262709E-01  -2.454884786670024E-01  -2.479556767347392E-01
  -2.504476704447077E-01  -2.529647089910038E-01  -2.555070440729797E-01
  -2.580749299190239E-01  -2.606686233112893E-01  -2.632883836130697E-01
  -2.659344727943850E-01  -2.686071554572145E-01  -2.713066988619443E-01
  -2.740333729553010E-01  -2.767874503968458E-01  -2.795692065846083E-01
  -2.823789196846329E-01  -2.852168706592630E-01  -2.880833432922700E-01
  -2.909786242192897E-01  -2.939030029575717E-01  -2.968567719320023E-01
  -2.998402265054568E-01  -3.028536650095112E-01  -3.058973887731898E-01
  -3.089717021531200E-01  -3.120769125637323E-01  -3.152133305080743E-01
  -3.183812696090199E-01  -3.215810466408836E-01  -3.248129815608959E-01
  -3.280773975393317E-01  -3.313746209946855E-01  -3.347049816263062E-01
  -3.380688124427313E-01  -3.414664497981743E-01  -3.448982334286610E-01
  -3.483645064822782E-01  -3.518656155534760E-01  -3.554019107191504E-01
  -3.589737455725035E-01  -3.625814772590835E-01  -3.662254665123303E-01
  -3.699060776886524E-01  -3.736236788045972E-01  -3.773786415735860E-01
  -3.811713414427148E-01  -3.850021576298161E-01  -3.888714731607663E-01
  -3.927796749092979E-01  -3.967271536355541E-01  -4.007143040226659E-01
  -4.047415247181043E-01  -4.088092183732574E-01  -4.129177916818144E-01
  -4.170676554221937E-01  -4.212592244976532E-01  -4.254929179774502E-01
  -4.297691591384494E-01  -4.340883755078249E-01  -4.384509989059678E-01
  -4.428574654872032E-01  -4.473082157838981E-01  -4.518036947513484E-01
  -4.563443518131570E-01  -4.609306409040356E-01  -4.655630205126216E-01
  -4.702419537305368E-01  -4.749679082983751E-01  -4.797413566495288E-01
  -4.845627759576889E-01  -4.894326481848503E-01  -4.943514601305117E-01
  -4.993197034785181E-01  -5.043378748433731E-01  -5.094064758222590E-01
  -5.145260130455488E-01  -5.196969982231363E-01  -5.249199481977549E-01
  -5.301953849963267E-01  -5.355238358786704E-01  -5.409058333936406E-01
  -5.463419154282262E-01  -5.518326252603590E-01  -5.573785116156288E-01
  -5.629801287191498E-01  -5.686380363502951E-01  -5.743527998960404E-01
  -5.801249904091779E-01  -5.859551846640696E-01  -5.918439652122655E-01
  -5.977919204414766E-01  -6.037996446276681E-01  -6.098677379973757E-01
  -6.159968067886330E-01  -6.221874633068798E-01  -6.284403259868985E-01
  -6.347560194490522E-01  -6.411351745608281E-01  -6.475784285025237E-01
  -6.540864248264967E-01  -6.606598135178636E-01  -6.672992510618242E-01
  -6.740054005053614E-01  -6.807789315167141E-01  -6.876205204542397E-01
  -6.945308504324027E-01  -7.015106113854424E-01  -7.085605001357528E-01
  -7.156812204592544E-01  -7.228734831511631E-01  -7.301380060959677E-01
  -7.374755143353917E-01  -7.448867401381084E-01  -7.523724230675732E-01
  -7.599333100528733E-01  -7.675701554616227E-01  -7.752837211679071E-01
  -7.830747766246855E-01  -7.909440989363805E-01  -7.988924729319206E-01
  -8.069206912383138E-01  -8.150295543526703E-01  -8.232198707185553E-01
  -8.314924568005503E-01  -8.398481371576251E-01  -8.482877445216402E-01
  -8.568121198717769E-01  -8.654221125081010E-01  -8.741185801352361E-01
  -8.829023889407293E-01  -8.917744136646202E-01  -9.007355376801810E-01
  -9.097866530795813E-01  -9.189286607490469E-01  -9.281624704461741E-01
  -9.374890008833937E-01  -9.469091798074223E-01  -9.564239440772295E-01
  -9.660342397470570E-01  -9.757410221504637E-01  -9.855452559784034E-01
  -9.954479153600635E-01  -1.005449983947602E+00  -1.015552454997532E+00
  -1.025756331451726E+00  -1.036062626019159E+00  -1.046472361259879E+00
  -1.056986569668581E+00  -1.067606293755338E+00  -1.078332586128924E+00
  -1.089166509575006E+00  -1.100109137141885E+00  -1.111161552227369E+00
  -1.122324848650010E+00  -1.133600130734105E+00  -1.144988513395730E+00
  -1.156491122220093E+00  -1.168109093540391E+00  -1.179843574515965E+00
  -1.191695723216956E+00  -1.203666708698718E+00  -1.215757711075197E+00
  -1.227969921603126E+00  -1.240304542755798E+00  -1.252762788295053E+00
  -1.265345883343751E+00  -1.278055064459899E+00  -1.290891579710006E+00
  -1.303856688731266E+00  -1.316951662802882E+00  -1.330177784915176E+00
  -1.343536349829280E+00  -1.357028664140415E+00  -1.370656046337032E+00
  -1.384419826855357E+00  -1.398321348137253E+00  -1.412361964685740E+00
  -1.426543043107259E+00  -1.440865962159871E+00  -1.455332112799569E+00
  -1.469942898212957E+00  -1.484699733856570E+00  -1.499604047492333E+00
  -1.514657279208617E+00  -1.529860881443026E+00  -1.545216319003268E+00
  -1.560725069077285E+00  -1.576388621242471E+00  -1.592208477470051E+00
  -1.608186152119115E+00  -1.624323171923844E+00  -1.640621075972834E+00
  -1.657081415687776E+00  -1.673705754797871E+00  -1.690495669294375E+00
  -1.707452747377849E+00  -1.724578589403288E+00  -1.741874807815543E+00
  -1.759343027072651E+00  -1.776984883556067E+00  -1.794802025469953E+00
  -1.812796112733174E+00  -1.830968816858985E+00  -1.849321820818076E+00
  -1.867856818889118E+00  -1.886575516497177E+00  -1.905479630032680E+00
  -1.924570886654583E+00  -1.943851024085189E+00  -1.963321790381225E+00
  -1.982984943682407E+00  -2.002842251945485E+00  -2.022895492659557E+00
  -2.043146452539014E+00  -2.063596927189569E+00  -2.084248720752379E+00
  -2.105103645526575E+00  -2.126163521564876E+00  -2.147430176239741E+00
  -2.168905443779642E+00  -2.190591164778243E+00  -2.212489185673492E+00
  -2.234601358189854E+00  -2.256929538744278E+00  -2.279475587819556E+00
  -2.302241369299565E+00  -2.325228749764630E+00  -2.348439597741345E+00
  -2.371875782910584E+00  -2.395539175273309E+00  -2.419431644261457E+00
  -2.443555057800547E+00  -2.467911281325290E+00  -2.492502176734240E+00
  -2.517329601285792E+00  -2.542395406437945E+00  -2.567701436624573E+00
  -2.593249527966306E+00  -2.619041506903821E+00  -2.645079188770705E+00
  -2.671364376288586E+00  -2.697898857975527E+00  -2.724684406486541E+00
  -2.751722776854109E+00  -2.779015704646599E+00  -2.806564904037475E+00
  -2.834372065767008E+00  -2.862438855010377E+00  -2.890766909136793E+00
  -2.919357835357649E+00  -2.948213208263896E+00  -2.977334567240025E+00
  -3.006723413754072E+00  -3.036381208520147E+00  -3.066309368522655E+00
  -3.096509263899460E+00  -3.126982214682406E+00  -3.157729487386238E+00
  -3.188752291434216E+00  -3.220051775424105E+00  -3.251629023223277E+00
  -3.283485049880817E+00  -3.315620797364409E+00  -3.348037130102829E+00
  -3.380734830327039E+00  -3.413714593214145E+00  -3.446977021807180E+00
  -3.480522621723206E+00  -3.514351795638847E+00  -3.548464837524193E+00
  -3.582861926641644E+00  -3.617543121297627E+00  -3.652508352323546E+00
  -3.687757416290196E+00  -3.723289968452002E+00  -3.759105515395157E+00
  -3.795203407392259E+00  -3.831582830463033E+00  -3.868242798109295E+00
  -3.905182142727826E+00  -3.942399506705137E+00  -3.979893333162535E+00
  -4.017661856353589E+00  -4.055703091708322E+00  -4.094014825506894E+00
  -4.132594604183019E+00  -4.171439723241359E+00  -4.210547215786497E+00
  -4.249913840656533E+00  -4.289536070146172E+00  -4.329410077320297E+00
  -4.369531722910462E+00  -4.409896541785808E+00  -4.450499728995029E+00
  -4.491336125374414E+00  -4.532400202719414E+00  -4.573686048514579E+00
  -4.615187350224224E+00  -4.656897379142367E+00  -4.698808973797405E+00
  -4.740914522919760E+00  -4.783205947975705E+00  -4.825674685267765E+00
  -4.868311667613819E+00  -4.911107305610275E+00  -4.954051468492708E+00
  -4.997133464608901E+00  -5.040342021513489E+00  -5.083665265707690E+00
  -5.127090702046814E+00  -5.170605192834203E+00  -5.214194936634418E+00
  -5.257845446838470E+00  -5.301541530005675E+00  -5.345267264031387E+00
  -5.389005976183666E+00  -5.432740221049710E+00  -5.476451758450225E+00
  -5.520121531377981E+00  -5.563729644022245E+00  -5.607255339952804E+00
  -5.650676980535973E+00  -5.693972023660591E+00  -5.737117002867389E+00
  -5.780087506974710E+00  -5.822858160301842E+00  -5.865402603602131E+00
  -5.907693475823605E+00  -5.949702396822364E+00  -5.991399951166177E+00
  -6.032755673168416E+00  -6.073738033306101E+00  -6.114314426189035E+00
  -6.154451160248062E+00  -6.194113449323472E+00  -6.233265406347995E+00
  -6.271870039327309E+00  -6.309889249829762E+00  -6.347283834206900E+00
  -6.384013487778002E+00  -6.420036812225861E+00  -6.455311326457745E+00
  -6.489793481190804E+00  -6.523438677537841E+00  -6.556201289880713E+00
  -6.588034693319615E+00  -6.618891295999091E+00  -6.648722576621425E+00
  -6.677479127462822E+00  -6.705110703210325E+00  -6.731566275948845E+00
  -6.756794096632926E+00  -6.780741763369154E+00  -6.803356296842527E+00
  -6.824584223226358E+00  -6.844371664902749E+00  -6.862664439316294E+00
  -6.879408166281872E+00  -6.894548384056013E+00  -6.908030674468753E+00
  -6.919800797393857E+00  -6.929804834822946E+00  -6.937989344787630E+00
  -6.944301525340984E+00  -6.948689388790877E+00  -6.951101946337099E+00
  -6.951489403229392E+00  -6.949803364527188E+00  -6.945997051485641E+00
  -6.940025528550857E+00  -6.931845940888095E+00  -6.921417762305736E+00
  -6.908703053371513E+00  -6.893666729445699E+00  -6.876276838281620E+00
  -6.856504846756986E+00  -6.834325936213334E+00  -6.809719305785447E+00
  -6.782668483001270E+00  -6.753161640824418E+00  -6.721191920199424E+00
  -6.686757757038476E+00  -6.649863212457367E+00  -6.610518304936403E+00
  -6.568739342933593E+00  -6.524549256327786E+00  -6.477977924907940E+00
  -6.429062501945806E+00  -6.377847730711953E+00  -6.324386251594091E+00
  -6.268738897262809E+00  -6.210974973106314E+00  -6.151172519906289E+00
  -6.089418555459928E+00  -6.025809291562956E+00  -5.960450322452759E+00
  -5.893456780463219E+00  -5.824953454264768E+00  -5.755074864649646E+00
  -5.683965292369500E+00  -5.611778752037945E+00  -5.538678905572048E+00
  -5.464838908064269E+00  -5.390441178348397E+00  -5.315677085850219E+00
  -5.240746544605115E+00  -5.165857504581644E+00  -5.091225329688117E+00
  -5.017072051074352E+00  -4.943625483594149E+00  -4.871118192597848E+00
  -4.799786297618573E+00  -4.729868099049563E+00  -4.661602513649121E+00
  -4.595227304732820E+00  -4.530977093314963E+00  -4.469081137361359E+00
  -4.409760867850022E+00  -4.353227172670532E+00  -4.299677422716949E+00
  -4.249292239064806E+00  -4.202232006121741E+00  -4.158633143390757E+00
  -4.118604158308565E+00  -4.082221514874572E+00  -4.049525367865844E+00
  -4.020515230771400E+00  -3.995145667643011E+00  -3.973322125358562E+00
  -3.954897053859871E+00  -3.939666498344830E+00  -3.927367389777753E+00
  -3.917675809091229E+00  -3.910206556804480E+00  -3.904514424272989E+00
  -3.900097636304142E+00  -3.896404018457118E+00  -3.892840537235227E+00
  -3.888786969100091E+00  -3.883614576670878E+00  -3.876710810012169E+00
  -3.867511210587068E+00  -3.855539879017862E+00  -3.840460079902945E+00
  -3.822136803123202E+00  -3.800713387630184E+00  -3.776704647295107E+00
  -3.751109325010679E+00  -3.725184762814869E+00  -3.699231251796941E+00
  -3.673253494803113E+00  -3.647256257025898E+00  -3.621244317525564E+00
  -3.595222425593944E+00  -3.569195262981384E+00  -3.543167412675872E+00
  -3.517143334761124E+00  -3.491127349679951E+00  -3.465123629013026E+00
  -3.439136193890939E+00  -3.413168921005388E+00  -3.387225556053537E+00
  -3.361309734436159E+00  -3.335425008931632E+00  -3.309574883993489E+00
  -3.283762856245364E+00  -3.257992460662332E+00  -3.232267321836686E+00
  -3.206591209627620E+00  -3.180968098390152E+00  -3.155402228866425E+00
  -3.129898171707826E+00  -3.104460891488483E+00  -3.079095809958635E+00
  -3.053808867320602E+00  -3.028606579392476E+00  -3.003496090458442E+00
  -2.978485220101251E+00  -2.953582500299462E+00  -2.928797203879891E+00
  -2.904139362713999E+00  -2.879619773038536E+00  -2.855249987754697E+00
  -2.831042294650661E+00  -2.807009679941574E+00  -2.783165776809010E+00
  -2.759524798938170E+00  -2.736101459386818E+00  -2.712910875458243E+00
  -2.689968460586705E+00  -2.667289804564229E+00  -2.644890543733436E+00
  -2.622786223026203E+00  -2.600992151904374E+00  -2.579523256708353E+00
  -2.558393931338300E+00  -2.537617888820923E+00  -2.517208016745634E+00
  -2.497176238258994E+00  -2.477533380987203E+00  -2.458289056230782E+00
  -2.439451550183443E+00  -2.421027728894852E+00  -2.403022958424509E+00
  -2.385441041372619E+00  -2.368284170704652E+00  -2.351552901515504E+00
  -2.335246141108048E+00  -2.319361157499360E+00  -2.303893606213549E+00
  -2.288837574976580E+00  -2.274185645704537E+00  -2.259928972959227E+00
  -2.246057377845122E+00  -2.232559456138463E+00  -2.219422699266408E+00
  -2.206633626598969E+00  -2.194177927373648E+00  -2.182040610443503E+00
  -2.170206159933479E+00  -2.158658694790698E+00  -2.147382130139381E+00
  -2.136360338297710E+00  -2.125577307278175E+00  -2.115017294582732E+00
  -2.104664974122228E+00  -2.094505574129672E+00  -2.084525004005711E+00
  -2.074709968139008E+00  -2.065048064867138E+00  -2.055527868900442E+00
  -2.046138995718354E+00  -2.036872146655637E+00  -2.027719133639576E+00
  -2.018672882803858E+00  -2.009727416498683E+00  -2.000877813550197E+00
  -1.992120147979650E+00  -1.983451406796394E+00  -1.974869387933678E+00
  -1.966372579900550E+00  -1.957960025298043E+00  -1.949631170989121E+00
  -1.941385708437947E+00  -1.933223408594367E+00  -1.925143956565933E+00
  -1.917146791951503E+00  -1.909230961747139E+00  -1.901394993777857E+00
  -1.893636798681432E+00  -1.885953608767437E+00  -1.878341962236202E+00
  -1.870797740247664E+00  -1.863316262650231E+00  -1.855892445725014E+00
  -1.848521021892076E+00  -1.841196817029539E+00  -1.833915076049089E+00
  -1.826671821983018E+00  -1.819464228539330E+00  -1.812290981466433E+00
  -1.805152600807111E+00  -1.798051694855773E+00  -1.790993117907552E+00
  -1.783984008022019E+00  -1.777033688013915E+00  -1.770153422379898E+00
  -1.763356034134936E+00  -1.756655397525068E+00  -1.750065834057533E+00
  -1.743601449083277E+00  -1.737275452585436E+00  -1.731099511170898E+00
  -1.725083177002358E+00  -1.719233433132561E+00  -1.713554386450816E+00
  -1.708047127364032E+00  -1.702709761585110E+00  -1.697537606416357E+00
  -1.692523531521044E+00  -1.687658414354635E+00  -1.682931673732418E+00
  -1.678331841877184E+00  -1.673847135720478E+00  -1.669465991841044E+00
  -1.665177535545985E+00  -1.660971962387495E+00  -1.656840818939676E+00
  -1.652777178077992E+00  -1.648775711586250E+00  -1.644832669135541E+00
  -1.640945777233704E+00  -1.637114074544378E+00  -1.633337701117378E+00
  -1.629617658793547E+00  -1.625955558648199E+00  -1.622353369174356E+00
  -1.618813176312922E+00  -1.615336963697546E+00  -1.611926419286382E+00
  -1.608582769688750E+00  -1.605306646338761E+00  -1.602097984137236E+00
  -1.598955945029844E+00  -1.595878869084578E+00  -1.592864251159394E+00
  -1.589908736830632E+00  -1.587008136347128E+00  -1.584157453409583E+00
  -1.581350926142601E+00  -1.578582077920891E+00  -1.575843776031243E+00
  -1.573128296460414E+00  -1.570427393384070E+00  -1.567732372185313E+00
  -1.565034165038384E+00  -1.562323408257514E+00  -1.559590520732996E+00
  -1.556825782858393E+00  -1.554019415405504E+00  -1.551161657823621E+00
  -1.548242845443339E+00  -1.545253485055486E+00  -1.542184328318474E+00
  -1.539026442430822E+00  -1.535771277493960E+00  -1.532410729987545E+00
  -1.528937201789348E+00  -1.525343654198343E+00  -1.521623656459095E+00
  -1.517771428342513E+00  -1.513781876409180E+00  -1.509650623664964E+00
  -1.505374032412735E+00  -1.500949220203488E+00  -1.496374068893300E+00
  -1.491647226917283E+00  -1.486768104989386E+00  -1.481736865529685E+00
  -1.476554406204469E+00  -1.471222338034990E+00  -1.465742958589560E+00
  -1.460119220817053E+00  -1.454354698109811E+00  -1.448453546200311E+00
  -1.442420462497273E+00  -1.436260643457322E+00  -1.429979740568042E+00
  -1.423583815488062E+00  -1.417079294852908E+00  -1.410472925212778E+00
  -1.403771728521542E+00  -1.396982958547375E+00  -1.390114058526112E+00
  -1.383172620328664E+00  -1.376166345365889E+00  -1.369103007409194E+00
  -1.361990417462006E+00  -1.354836390778541E+00  -1.347648716090486E+00
  -1.340435127070648E+00  -1.333203276035468E+00  -1.325960709863881E+00
  -1.318714848089040E+00  -1.311472963112503E+00  -1.304242162432169E+00
  -1.297029372892341E+00  -1.289841326755859E+00  -1.282684550688401E+00
  -1.275565350433510E+00  -1.268489809399301E+00  -1.261463776145694E+00
  -1.254492859558261E+00  -1.247582424058721E+00  -1.240737585976341E+00
  -1.233963210992422E+00  -1.227263912574740E+00  -1.220644051316873E+00
  -1.214107735102840E+00  -1.207658820020981E+00  -1.201300911956433E+00
  -1.195037368795766E+00  -1.188871303182117E+00  -1.182805585763210E+00
  -1.176842848879592E+00  -1.170985490644791E+00  -1.165235677798871E+00
  -1.159595353773904E+00  -1.154066238270773E+00  -1.148649838917500E+00
  -1.143347452290269E+00  -1.138160172989549E+00  -1.133088897500945E+00
  -1.128134330019496E+00  -1.123296988390913E+00  -1.118577210092917E+00
  -1.113975158260176E+00  -1.109490827732182E+00  -1.105124051103910E+00
  -1.100874504759608E+00  -1.096741714870231E+00  -1.092725063334274E+00
  -1.088823793644031E+00  -1.085037016647088E+00  -1.081363717159204E+00
  -1.077802755600132E+00  -1.074352879183915E+00  -1.071012723097248E+00
  -1.067780816408403E+00  -1.064655586744382E+00  -1.061635364065160E+00
  -1.058718395282740E+00  -1.055902748689519E+00  -1.053186963053884E+00
  -1.050561199526941E+00  -9.999985259898068E-01  -1.000005733504442E+00
  -1.000005519051530E+00  -1.000000115843540E+00  -1.000000097805119E+00
  -1.000000081164914E+00  -1.000000067184176E+00  -1.000000055460110E+00
  -1.000000045647207E+00  -1.000000037449587E+00  -1.000000030049490E+00
  -1.000000024392370E+00  -1.000000019697667E+00  -1.000000015809805E+00
  -1.000000012596852E+00  -1.000000009947282E+00  -1.000000007766989E+00
  -1.000000005976729E+00  -1.000000004509926E+00  -1.000000003310815E+00
  -1.000000002333193E+00  -1.000000001537162E+00  -1.000000000890793E+00
  -1.000000000367143E+00  -9.999999999439095E-01  -9.999999996026369E-01
  -9.999999993280795E-01  -9.999999991077693E-01  -9.999999989313896E-01
  -9.999999987905291E-01  -9.999999986783011E-01  -9.999999985891268E-01
  -9.999999985184367E-01  -9.999999984625380E-01  -9.999999984184509E-01
  -9.999999983837529E-01  -9.999999983565349E-01  -9.999999983352489E-01
  -9.999999983186209E-01  -9.999999983056816E-01  -9.999999982956295E-01
  -9.999999982878361E-01  -9.999999982818150E-01  -9.999999982771581E-01
  -9.999999982735747E-01  -9.999999982708451E-01  -9.999999982687431E-01
  -9.999999982671387E-01  -9.999999982659119E-01  -9.999999982649654E-01
  -9.999999982642528E-01  -9.999999982636937E-01  -9.999999982632712E-01
  -9.999999982629505E-01  -9.999999982627007E-01  -9.999999982625140E-01
  -9.999999982623550E-01  -9.999999982622382E-01  -9.999999982621448E-01
  -9.999999982620665E-01  -9.999999982619728E-01  -9.999999982619122E-01
  -9.999999982618646E-01  -9.999999982618116E-01  -9.999999982617707E-01
  -9.999999982617265E-01  -9.999999982616939E-01  -9.999999982616563E-01
  -9.999999982616001E-01  -9.999999982615698E-01  -9.999999982615493E-01
  -9.999999982615116E-01  -9.999999982614841E-01  -9.999999982614532E-01
  -9.999999982614222E-01  -9.999999982613966E-01  -9.999999982613409E-01
  -9.999999982613074E-01  -9.999999982612888E-01  -9.999999982612626E-01
  -9.999999982612368E-01  -9.999999982612129E-01  -9.999999982611846E-01
  -9.999999982611639E-01  -9.999999982611441E-01  -9.999999982610887E-01
  -9.999999982610737E-01  -9.999999982610391E-01  -9.999999982610286E-01
  -9.999999982609977E-01  -9.999999982609834E-01  -9.999999982609568E-01
  -9.999999982609356E-01  -9.999999982608978E-01  -9.999999982608750E-01
  -9.999999982608575E-01  -9.999999982608427E-01  -9.999999982608239E-01
  -9.999999982608095E-01  -9.999999982607859E-01  -9.999999982607769E-01
  -9.999999982607438E-01  -9.999999982607264E-01  -9.999999982607162E-01
  -9.999999982606963E-01  -9.999999982606825E-01  -9.999999982606786E-01
  -9.999999982606618E-01  -9.999999982606529E-01  -9.999999982606481E-01
  -9.999999982606176E-01  -9.999999982606080E-01  -9.999999982606040E-01
  -9.999999982605857E-01  -9.999999982605858E-01  -9.999999982605793E-01
  -9.999999982605720E-01  -9.999999982605629E-01  -9.999999982605400E-01
  -9.999999982605338E-01  -9.999999982605244E-01  -9.999999982605282E-01
  -9.999999982605229E-01
      </PP_GIPAW_VLOCAL_PS>
    </PP_GIPAW_VLOCAL>
  </PP_GIPAW>
</UPF>
