 &projwfc
    prefix='fe'
    outdir='./'
    filpdos='./fe'
    lwrite_overlaps = .false.
    lbinary_data  = .false.
 /
