Fe                                      
   1.00000000000000     
     1.4149939205727917    1.4149939205727917    1.4149939205727917
    -1.4149939205727917    1.4149939205727917    1.4149939205727917
    -1.4149939205727917   -1.4149939205727917    1.4149939205727917
   Fe
     1
Direct
  0.0000000000000000 -0.0000000000000000  0.0000000000000000
 
  0.00000000E+00  0.00000000E+00  0.00000000E+00
