 &bands
    prefix  = 'silicon'
    outdir='./'
    filband = 'sibands.dat'
    !   lsym=.true.
 /
