 &projwfc
    prefix = 'MgO'
    outdir = './'
    filpdos = './proj'
    lbinary_data  = .false.
    lwrite_overlaps = .true.
 /    
