 &control
    calculation = 'nscf'
    prefix='silicon_sym',
    pseudo_dir = './'
    outdir = './'
 /
 &system    
    ibrav=  2, celldm(1) =10.599478, nat=  2, ntyp= 1,
    ecutwfc =18.0,  nbnd = 18

 /
 &electrons
    mixing_mode = 'plain'
    mixing_beta = 0.7 
    conv_thr =  1.0d-8
 /
ATOMIC_SPECIES
 Si  28.086 Si.pw-mt_fhi_spd.UPF
ATOMIC_POSITIONS (alat)
 Si 0.00 0.00 0.00 
 Si 0.25 0.25 0.25 
K_POINTS {automatic}
  12 12 12 0 0 0
