 &projwfc
    prefix='silicon'
    outdir='./'
    filpdos='./silicon'
    lwrite_overlaps = .true.
    lbinary_data  = .false.
    !
    degauss = 0.01
    ngauss = 0   ! gaussian broad
    emin = -10.0
    emax = +20.0
    deltaE = 0.025
 /
