Fe
Iron
 &control
    calculation='scf'
    restart_mode='from_scratch',
    pseudo_dir = './',
    outdir='./',
    prefix='fe'
 /
 &system
    ibrav = 3, celldm(1) =5.4235, nat= 1, ntyp= 1,
    ecutwfc = 44.0, ecutrho = 482.0
    report=1,
    occupations='smearing', smearing='marzari-vanderbilt', degauss=0.02
    noncolin = .true.
    lspinorb=.true.
    starting_magnetization(1) = 0.5
    !angle1(1) = 0.0
    !angle2(1) =  0.0
 /
 &electrons
    startingwfc='random'
    conv_thr = 1.0e-8
    mixing_beta = 0.2
 /
ATOMIC_SPECIES
 Fe 55.847 Fe.rel-pz-spn-rrkjus_psl.0.2.1.UPF
ATOMIC_POSITIONS
 Fe 0.0 0.0 0.0
K_POINTS {automatic}
6 6 6 0 0 0
