SYSTEM = FeRh

ISTART    = 0
ICHARG    = 11
# parallelization
NPAR      = 4

# output
LWAVE     = .TRUE.         # .TRUE. for WAVECAR
LCHARG    = .FALSE.         # .TRUE. for CHGCAR 

# electronic relaxation
PREC      = Accurate      
ENCUT     = 300
EDIFF     = 1.0e-8          # Electronic energy convergence criterion.
ISMEAR    = 1               # 1 : metals
SIGMA     = 0.1
NELM      = 100
ISPIN     = 1               # 1 : non spin polarized, 2 : spin polarized
GGA       = PE              # The PS flag turns on PBE_sol. (Do not use with LDA.)
LSORBIT   = T
MAGMOM    = 0 0 3 0 0 0
NBANDS    = 32
LASPH     = .TRUE.

