 &projwfc
    prefix='silicon'
    outdir='./'
    filpdos='./silicon'
    lwrite_overlaps = .true.
    lbinary_data  = .false.
 /
