 &projwfc
    prefix='al'
    outdir='./'
    filpdos='./al'
    lwrite_overlaps = .false.
    lbinary_data  = .false.
 /
