 MgO FCC
 &control
    calculation = 'nscf',
    restart_mode = 'from_scratch',
    prefix = 'zno',
    wf_collect= .true.
    pseudo_dir = './'
    verbosity='high'
 /

 &system
    ibrav=4,
    celldm(1)=6.2145865  ! lattice param in bohr
    celldm(3)=1.6161     ! c/a
    nat=4,
    ntyp=2,
    ecutwfc = 150,
    occupations='fixed',
    nosym=.true.
    noinv=.true.
    nbnd=28
 /   

 &electrons
    mixing_mode = 'plain'
    mixing_beta = 0.5
    conv_thr =  1.0d-6
    electron_maxstep = 200 
 /

K_POINTS automatic
 6 6 4 0 0 0 

ATOMIC_SPECIES 
 Zn  65.39 Zn.pbe-n-nc.UPF
 O   15.99 O.pbe-nc_Luis.UPF 

ATOMIC_POSITIONS (crystal)
Zn       0.000000000   0.000000000   0.001929081
O        0.000000000   0.000000000   0.380732128
Zn       0.666666700   0.333333330   0.501930485
O        0.666666700   0.333333330   0.880730007
