 &CONTROL
    calculation='nscf',
    restart_mode='from_scratch',
    pseudo_dir = '../pseudo',
    outdir='./output/qe',
    tprnfor = .TRUE.
    prefix='alh'
    wf_collect = .TRUE.

 /

 &SYSTEM
    ibrav = 6,
    celldm(1) =12.0,
    celldm(3) =3.750,
    nat= 11,
    ntyp= 2,
    ecutwfc = 18.0,
    occupations='smearing',
    smearing='methfessel-paxton',
    degauss=0.01
    nosym=.true.
    noinv=.true.
    nbnd=60
 /

 &ELECTRONS
    conv_thr = 1.0e-8
    mixing_beta = 0.7
 /
ATOMIC_SPECIES
 Al 26.98 Al.pbe-rrkj.UPF
 H  1.0   H.pbe-van_bm.UPF
ATOMIC_POSITIONS (alat)
Al     0.00000000     0.00000000    -0.75000000
Al     0.00000000     0.00000000    -0.37500000
Al     0.00000000     0.00000000     0.00000000
Al     0.00000000     0.00000000     0.37500000
Al    -0.02779870     0.00000000     0.75537515
H      0.19269012     0.00000000     0.93750000
Al    -0.02779870     0.00000000     1.11962485
Al     0.00000000     0.00000000     1.50000000
Al     0.00000000     0.00000000     1.87500000
Al     0.00000000     0.00000000     2.25000000
Al     0.00000000     0.00000000     2.62500000
K_POINTS {automatic}
    1 1 8    0  0  0
