   &PROJWFC
      prefix='alh',
      outdir = './output/qe'
      filpdos='./alh'
      lwrite_overlaps = .TRUE.
   /
