 &control
    calculation = 'nscf'
    restart_mode='from_scratch',
    prefix='bi',
    tprnfor = .true.
    pseudo_dir = './'
    outdir='./'
    verbosity = "high"
    wf_collect=.true.
 /
 &system
    ibrav=  0, nat=  1, ntyp= 1,
    celldm(1) = 1.8897261249935, 
    ecutwfc =45.0,
    ecutrho =300.0,
    occupations='smearing', smearing='methfessel-paxton', degauss=0.02
    noinv = .TRUE.
    nosym = .TRUE.
    nbnd = 24
/
 &electrons
    mixing_mode = 'plain'
    mixing_beta = 0.7
    conv_thr =  1.0d-8
 /
ATOMIC_SPECIES
Bi 0.0  Bi.pbe-dn-kjpaw_psl.1.0.0.UPF 
ATOMIC_POSITIONS (crystal)
  Bi      0.00000000000000   0.00000000000000   0.00000000000000  ! // Bi 
CELL_PARAMETERS (cubic)
  -1.98499004453851   1.98499004453851   1.98499004453851
   1.98499004453851  -1.98499004453851   1.98499004453851
   1.98499004453851   1.98499004453851  -1.98499004453851
K_POINTS (automatic)
  12 12 12  0 0 0
