Mn3 Ir                                  
   1.00000000000000     
     3.7100597884168849    0.0010655872966475    0.0010632739152197
     0.0010632739152198    3.7100597884168849    0.0010655872966475
     0.0010655872966475    0.0010632739152198    3.7100597884168849
   Ir   Mn
     1     3
Direct
 -0.0000000000000000 -0.0000000000000000  0.0000000000000000
 -0.0000000000000000  0.5000000000000000  0.5000000000000000
  0.5000000000000000 -0.0000000000000000  0.5000000000000000
  0.5000000000000000  0.5000000000000000  0.0000000000000000
 
  0.00000000E+00  0.00000000E+00  0.00000000E+00
  0.00000000E+00  0.00000000E+00  0.00000000E+00
  0.00000000E+00  0.00000000E+00  0.00000000E+00
  0.00000000E+00  0.00000000E+00  0.00000000E+00
