 &control
    calculation='scf'
    restart_mode='from_scratch',
    prefix='alp',
    pseudo_dir = './',
    outdir='./'
 /
 &system
    ibrav=  2, celldm(1) =10.3746, nat= 2, ntyp= 2,
    ecutwfc =25.0, ecutrho=250.0,
 /
 &electrons
    conv_thr =  1.0d-8
    mixing_beta = 0.7
 /
ATOMIC_SPECIES
 Al  26.98 Al.pbe-mt_fhi.UPF
 P   30.973762 P.pbe-mt_fhi.UPF
ATOMIC_POSITIONS
 Al 0.00 0.00 0.00
 P  0.25 0.25 0.25
K_POINTS {automatic}
 6 6 6  0 0 0
