MnF2                                    
   1.00000000000000     
     4.9554273560700919   -0.0000000000000000    0.0000000000000000
    -0.0000000000000000    4.9554273560700919    0.0000000000000000
     0.0000000000000000    0.0000000000000000    3.3369676701608824
   Mn   F 
     2     4
Direct
 -0.0000000000000000  0.0000000000000000 -0.0000000000000000
  0.5000000000000000  0.5000000000000000  0.5000000000000000
  0.3046674594318158  0.3046674594318158 -0.0000000000000000
  0.6953325405681846  0.6953325405681846  0.0000000000000000
  0.1953325405681842  0.8046674594318154  0.5000000000000000
  0.8046674594318154  0.1953325405681842  0.5000000000000000
 
  0.00000000E+00  0.00000000E+00  0.00000000E+00
  0.00000000E+00  0.00000000E+00  0.00000000E+00
  0.00000000E+00  0.00000000E+00  0.00000000E+00
  0.00000000E+00  0.00000000E+00  0.00000000E+00
  0.00000000E+00  0.00000000E+00  0.00000000E+00
  0.00000000E+00  0.00000000E+00  0.00000000E+00
