&projwfc 
   prefix      = 'MoS2' 
    outdir='./'    
   filpdos      = 'MoS2' 
    lwrite_overlaps = .false.    
    lbinary_data  = .false.    
/    
