 &projwfc
    prefix='Te-L'
    outdir='./'
    filpdos='./Te-L'
 /
