 &projwfc
    prefix='pt'
    outdir='./'
    filpdos='./pt'
 /
