 &control
    calculation = 'scf'
    restart_mode='from_scratch',
    prefix='pt',
    pseudo_dir = './',
    outdir='./'
 /
 &system
    ibrav=  2, celldm(1) =7.42, nat=  1, ntyp= 1,
    lspinorb=.true.,
    noncolin=.true.,
    starting_magnetization=0.0,
    occupations='smearing',
    smearing = 'marzari-vanderbilt'
    degauss=0.02,
    ecutwfc =40.0,
    ecutrho =467.0,
 /
 &electrons
    mixing_beta = 0.7,
    conv_thr =  1.0d-10
 /
ATOMIC_SPECIES
Pt  0.0   Pt.rel-pz-n-rrkjus_psl.0.1.UPF
ATOMIC_POSITIONS
Pt  0.0000000   0.00000000   0.0
K_POINTS AUTOMATIC
6 6 6 0 0 0

